288
Lattice="12.9730319977 0.0 0.0 0.0 12.9730319977 0.0 0.0 0.0 17.7244205475" Properties=species:S:1:pos:R:3:decomposed_charges:R:1:decomposed_magmoms:R:1:forces:R:3:magmoms:R:4 energy=-2177.82654723 pbc="T T T"
Ti       9.47846000      12.80675000       1.52447000       2.45940000       0.00000000       0.85716700       1.40232500      -0.80341200       0.00000000      -0.00000000      -0.00000000      -0.00000000
Ti       9.61460000       0.17082000       4.42831000       2.47660000       0.00000000       0.11170100      -0.22080600       1.13263300       0.00000000      -0.00000000      -0.00000000      -0.00000000
Ti       9.64765000       0.44311000       7.35192000       2.53270000      -0.00010000      -0.59106000      -2.11204300      -0.37794300      -0.00000000      -0.00000000      -0.00000000      -0.00000000
Ti       9.78938000       0.33208000      10.27855000       2.54920000       0.00000000      -0.50960200      -0.66956200       0.65526500      -0.00000000      -0.00000000      -0.00000000      -0.00000000
Ti       9.72398000       0.17637000      13.29452000       2.45740000       0.00000000      -0.18787500      -1.74999500      -0.61411200      -0.00000000       0.00000000      -0.00000000      -0.00000000
Ti       9.52617000      12.90863000      16.22864000       2.42530000       0.00010000       0.60486500       0.34175500       0.83057800       0.00000000       0.00000000       0.00000000       0.00000000
Ti       9.92349000       3.10290000       0.03733000       2.26980000       0.00000000      -1.33763900      -0.36922300       0.07091000       0.00000000      -0.00000000      -0.00000000      -0.00000000
Ti       9.77494000       3.28072000       2.98841000       2.49260000       0.00000000       0.28473900      -0.31550100      -1.06032400       0.00000000      -0.00000000      -0.00000000      -0.00000000
Ti       9.80052000       3.50879000       5.88092000       2.64820000       0.00000000      -0.44316100       0.47603600       0.54464600       0.00000000       0.00000000       0.00000000       0.00000000
Ti       9.94745000       3.59274000       8.77528000       2.53600000       0.00040000      -0.75863300      -0.25859800       1.28734300       0.00000000       0.00000000       0.00000000       0.00000000
Ti      10.10080000       3.44806000      11.74605000       2.45260000       0.00000000      -0.72148100      -0.66938100      -0.87065500       0.00000000      -0.00000000      -0.00000000      -0.00000000
Ti      10.03419000       3.24230000      14.69130000       2.49760000       0.00000000      -0.57162700      -0.30734200       1.73592200       0.00000000      -0.00000000      -0.00000000      -0.00000000
Ti      10.06090000       6.54744000       1.63030000       2.39960000       0.00000000      -1.50569900      -1.82128200      -2.07734700       0.00000000       0.00000000      -0.00000000      -0.00000000
Ti       9.66974000       6.61750000       4.54764000       2.56630000      -0.00010000      -0.57880700      -0.27729400      -0.61607700      -0.00000000       0.00000000      -0.00000000      -0.00000000
Ti       9.73025000       6.84855000       7.44594000       2.48790000      -0.00010000      -0.84615800      -1.10303800       1.15164300      -0.00000000      -0.00000000      -0.00000000      -0.00000000
Ti       9.68271000       6.87014000      10.41725000       2.42620000       0.00000000      -0.06498100      -1.21065400      -0.30231100      -0.00000000      -0.00000000      -0.00000000      -0.00000000
Ti       9.87853000       6.51411000      13.34762000       2.47940000       0.00000000       0.12165100       1.22109000       0.03991200       0.00000000       0.00000000      -0.00000000      -0.00000000
Ti       9.95014000       6.35596000      16.29725000       2.62220000       0.00000000      -0.01725400       0.23756700       0.40829800       0.00000000       0.00000000      -0.00000000      -0.00000000
Ti       9.62277000       9.56177000       0.02181000       2.51320000       0.00000000      -0.01487900       0.56006600      -0.12548100      -0.00000000      -0.00000000      -0.00000000      -0.00000000
Ti       9.36156000       9.75189000       2.99330000       2.58060000       0.00000000       1.29254500       0.73284400       0.89826400       0.00000000       0.00000000      -0.00000000      -0.00000000
Ti       9.31164000       9.94218000       5.93250000       2.59670000      -0.00010000       0.71711600       1.40793800      -0.29850200      -0.00000000      -0.00000000      -0.00000000      -0.00000000
Ti       9.59181000      10.12844000       8.83685000       2.54650000      -0.00010000       1.35031100       0.37522100      -0.25018900       0.00000000      -0.00000000      -0.00000000      -0.00000000
Ti       9.77997000      10.00011000      11.77526000       2.45460000       0.00000000      -1.76713200      -0.19692300       0.89883500      -0.00000000      -0.00000000      -0.00000000      -0.00000000
Ti       9.77530000       9.69264000      14.77344000       2.40020000       0.00000000      -0.82601500      -0.02829700      -0.62758800       0.00000000       0.00000000       0.00000000       0.00000000
Ti       6.29703000       0.04228000       0.04570000       2.55840000       0.00000000       0.44361000       0.38337800       0.86942600      -0.00000000       0.00000000      -0.00000000      -0.00000000
Ti       6.28009000       0.02163000       3.03809000       2.56180000       0.00000000      -0.01688900       0.54345800      -0.96383200      -0.00000000      -0.00000000      -0.00000000      -0.00000000
Ti       6.27013000       0.17281000       5.86721000       2.57070000      -0.00010000       2.64702500      -0.32877000       2.41639500      -0.00000000      -0.00000000      -0.00000000      -0.00000000
Ti       6.41755000       0.32871000       8.91243000       2.51730000      -0.00030000       0.53195000      -1.36719200      -1.03090700      -0.00000000      -0.00000000      -0.00000000      -0.00000000
Ti       6.38718000       0.25078000      11.82607000       2.47850000      -0.00010000       0.70788400      -0.83733800      -0.12702100      -0.00000000      -0.00000000      -0.00000000      -0.00000000
Ti       6.29418000       0.00229000      14.79179000       2.53510000      -0.00010000       0.84373100       1.14754300      -0.43393000      -0.00000000      -0.00000000      -0.00000000      -0.00000000
Ti       6.51577000       3.24190000       1.58682000       2.56000000       0.00000000       1.52054400      -0.68147100      -2.62358400       0.00000000       0.00000000      -0.00000000      -0.00000000
Ti       6.41624000       3.28425000       4.43528000       2.65360000       0.00000000       1.64908200       0.42734600       0.64677100      -0.00000000      -0.00000000      -0.00000000      -0.00000000
Ti       6.57401000       3.42191000       7.37743000       2.55540000       0.00040000       0.33476800      -0.46544400      -0.17116400       0.00000000       0.00000000       0.00000000       0.00100000
Ti       6.71036000       3.51604000      10.37940000       2.38330000      -0.00010000       0.22052600       0.07981400      -0.24929000       0.00000000       0.00000000      -0.00000000       0.00000000
Ti       6.73463000       3.32463000      13.37080000       2.47250000      -0.00010000      -0.04244600       0.36168500      -0.77972500       0.00000000       0.00000000      -0.00000000      -0.00000000
Ti       6.63212000       3.27431000      16.31504000       2.50540000       0.00000000       0.63038400      -0.97548500       1.43811900       0.00000000       0.00000000      -0.00000000      -0.00000000
Ti       6.79900000       6.45561000       0.02067000       2.46040000       0.00000000      -0.22794900      -0.10677700      -0.35062200       0.00000000      -0.00000000      -0.00000000      -0.00000000
Ti       6.59942000       6.49876000       2.94053000       2.53040000       0.00000000      -0.10558600       0.30715900       0.39402500       0.00000000       0.00000000      -0.00000000      -0.00000000
Ti       6.35474000       6.52790000       5.86326000       2.59060000      -0.00020000       2.07716000       1.80192300      -1.10849300       0.00000000       0.00000000      -0.00000000      -0.00000000
Ti       6.43309000       6.66504000       8.75748000       2.50300000      -0.00060000      -0.11560300       0.87459200      -0.66200800      -0.00000000      -0.00000000      -0.00100000      -0.00100000
Ti       6.52890000       6.74024000      11.71768000       2.52220000      -0.00020000       1.28536600      -0.17377900       0.97209300       0.00000000       0.00000000      -0.00000000      -0.00000000
Ti       6.70026000       6.52355000      14.74681000       2.34680000       0.00000000      -0.10495400       0.04364300      -0.29609600      -0.00000000      -0.00000000      -0.00000000      -0.00000000
Ti       6.22467000       9.73451000       1.57959000       2.46770000      -0.00010000       0.63998300       0.16390600      -1.54565300       0.00000000       0.00000000       0.00000000       0.00000000
Ti       6.02970000       9.86592000       4.43760000       2.57350000      -0.00010000       1.59115800      -1.33945400       1.40506800      -0.00000000      -0.00000000      -0.00000000      -0.00000000
Ti       6.23907000       9.97453000       7.35675000       2.55400000      -0.00020000       0.26929000      -0.53838900      -0.68090900       0.00000000       0.00000000      -0.00000000      -0.00000000
Ti       6.47804000      10.00073000      10.23669000       2.32780000       0.00000000      -0.13471000       0.33941700       1.71065800       0.00000000       0.00000000      -0.00000000      -0.00000000
Ti       6.47406000       9.90535000      13.34255000       2.54160000       0.00000000      -0.53529300      -0.48356100      -1.62711000       0.00000000       0.00000000      -0.00000000      -0.00000000
Ti       6.50025000       9.81525000      16.31758000       2.36040000       0.00000000      -0.44190100      -0.71114100      -0.09281900      -0.00000000      -0.00000000      -0.00000000      -0.00000000
Ti       3.06845000      12.78387000       1.45928000       2.60620000      -0.00020000      -0.10980700       0.22002600      -0.37948000       0.00000000      -0.00000000      -0.00000000      -0.00000000
Ti       3.03565000       0.03228000       4.39354000       2.66560000      -0.00140000      -0.31661100      -0.22830800      -1.54993200      -0.00000000      -0.00000000      -0.00100000      -0.00100000
Ti       3.32627000       0.11742000       7.25740000       2.67100000      -0.01360000      -2.25552200      -0.35516000       2.43714800      -0.00100000      -0.00100000      -0.01400000      -0.01600000
Ti       3.28071000       0.02488000      10.28978000       2.41960000      -0.01080000      -0.71656600       0.00417400      -0.22075500      -0.00000000      -0.00100000      -0.01100000      -0.01200000
Ti       3.21074000      12.78828000      13.30751000       2.53540000      -0.00040000      -1.24352500      -0.55077800      -1.54977200       0.00000000       0.00000000      -0.00000000      -0.00000000
Ti       3.12215000      12.64242000      16.29526000       2.51290000      -0.00010000      -0.23980000       1.36045000      -0.93238400       0.00000000      -0.00000000      -0.00000000      -0.00000000
Ti       3.32629000       2.97184000      17.71320000       2.62810000      -0.00050000       1.45886000       0.28856900      -0.02489700      -0.00000000       0.00000000      -0.00000000      -0.00100000
Ti       3.23741000       3.14591000       2.93918000       2.58090000      -0.00410000       0.90322600       0.34014500      -1.74992400      -0.00000000      -0.00000000      -0.00400000      -0.00400000
Ti       3.22610000       3.25937000       5.84108000       2.50450000      -0.04290000       1.86484100       0.87636900       0.90318600      -0.00100000       0.00000000      -0.04300000      -0.04300000
Ti       3.44795000       3.33771000       8.76671000       2.36740000      -0.88640000      -0.05762100       0.11109800       0.93022400      -0.00900000      -0.02100000      -0.88400000      -0.91500000
Ti       3.48401000       3.15396000      11.77899000       2.45800000      -0.01860000       1.08047600      -0.36555400      -1.29314800      -0.00100000       0.00100000      -0.01900000      -0.01900000
Ti       3.53194000       2.93975000      14.75686000       2.45330000      -0.00230000      -0.47435200      -0.05548100       1.12568300      -0.00000000      -0.00000000      -0.00200000      -0.00200000
Ti       3.40961000       6.32143000       1.54130000       2.43010000      -0.00010000      -0.01565300       0.13120900      -0.54321100       0.00000000       0.00000000      -0.00000000      -0.00000000
Ti       3.26914000       6.49939000       4.45644000       2.60290000      -0.00070000      -0.59419900      -0.13005800      -0.70938300      -0.00000000      -0.00000000      -0.00100000      -0.00100000
Ti       3.16820000       6.62570000       7.28884000       2.50930000      -0.01590000      -0.22391800      -0.46499700       1.92091300      -0.00100000      -0.00200000      -0.01600000      -0.01900000
Ti       3.29012000       6.54343000      10.35428000       2.40320000      -0.01400000      -0.21744500      -1.65556100      -0.87248800      -0.00000000      -0.00200000      -0.01400000      -0.01600000
Ti       3.42488000       6.23907000      13.28470000       2.41520000      -0.00040000      -1.41348100       0.83605600       0.89820800       0.00000000       0.00000000      -0.00000000      -0.00000000
Ti       3.60440000       6.17051000      16.30349000       2.56360000       0.00000000      -2.83620500       0.69435800      -1.11761800       0.00000000       0.00000000      -0.00000000      -0.00000000
Ti       3.07053000       9.50256000      17.67242000       2.45880000       0.00000000       1.07763000      -0.84692000       0.17978300      -0.00000000       0.00000000      -0.00000000      -0.00000000
Ti       2.92552000       9.67951000       2.96368000       2.64100000      -0.00040000      -1.19397800      -1.53751600      -1.59437300       0.00000000       0.00000000      -0.00000000      -0.00000000
Ti       2.81977000       9.94292000       5.74776000       2.51190000      -0.00410000       0.55739800      -0.62436400       1.49525100      -0.00000000      -0.00000000      -0.00400000      -0.00400000
Ti       3.03689000       9.84843000       8.68371000       2.48470000      -0.00650000       0.46577700       0.40322800       0.61605300      -0.00000000      -0.00000000      -0.00600000      -0.00700000
Ti       3.29810000       9.60390000      11.67265000       2.46760000      -0.00200000       0.02789100       1.67434700       1.48775500       0.00000000       0.00000000      -0.00200000      -0.00200000
Ti       3.23026000       9.49671000      14.69102000       2.49960000       0.00000000      -0.40124300      -0.55278900      -0.13070900      -0.00000000       0.00000000      -0.00000000      -0.00000000
Ti      12.80917000      12.66225000       0.01864000       2.55350000      -0.00010000      -0.71859700      -0.62396500      -1.11627700      -0.00000000       0.00000000      -0.00000000      -0.00000000
Ti      12.80296000      12.68854000       3.04251000       2.48300000       0.00000000      -0.20136600      -0.82686300      -1.58353400      -0.00000000       0.00000000      -0.00000000      -0.00000000
Ti      12.88310000       0.00646000       5.88331000       2.53840000      -0.00020000      -0.38966800       0.66130100       0.83056300       0.00000000      -0.00000000      -0.00000000      -0.00000000
Ti       0.03784000       0.01626000       8.80827000       2.50380000      -0.00020000       0.27965300       0.50844300       0.42838800      -0.00000000      -0.00000000      -0.00000000      -0.00000000
Ti       0.01251000      12.85749000      11.82843000       2.54810000      -0.00030000      -0.59846100       0.17588800       0.13366500      -0.00000000      -0.00000000      -0.00000000      -0.00000000
Ti      12.92338000      12.69585000      14.74387000       2.40660000       0.00000000      -0.92987900      -0.79755800       1.20128400      -0.00000000      -0.00000000      -0.00000000      -0.00000000
Ti       0.17383000       2.80199000       1.46730000       2.58460000       0.00000000      -1.72912000       1.63485000      -0.28413100       0.00000000       0.00000000      -0.00000000       0.00000000
Ti       0.10444000       3.08638000       4.39419000       2.55970000      -0.00030000      -2.51617200       0.75252100       0.36205700       0.00000000       0.00000000      -0.00000000      -0.00000000
Ti       0.14891000       3.31431000       7.38391000       2.53540000       0.00000000      -1.29366900      -1.49258300       0.44514600       0.00000000       0.00000000      -0.00000000      -0.00000000
Ti       0.28828000       3.10562000      10.35221000       2.62770000       0.00010000      -1.49069800       0.32577300      -0.81421200       0.00000000       0.00000000       0.00000000       0.00000000
Ti       0.40717000       3.00715000      13.29452000       2.56860000      -0.00020000      -1.08627900       0.50517000      -0.17678100       0.00000000      -0.00000000      -0.00000000      -0.00000000
Ti       0.12481000       2.92289000      16.26074000       2.49360000       0.00000000      -0.07851200      -0.51453500      -1.53287500      -0.00000000       0.00000000      -0.00000000      -0.00000000
Ti       0.26808000       6.11867000       0.09047000       2.50460000       0.00000000      -0.07055500       1.02279100      -0.42160000      -0.00000000       0.00000000       0.00000000       0.00000000
Ti       0.15433000       6.29889000       3.00773000       2.59000000       0.00000000       0.27799200      -0.30163100      -1.18035200      -0.00000000       0.00000000      -0.00000000      -0.00000000
Ti      12.88162000       6.40565000       5.85954000       2.48020000      -0.00020000       1.67662100       0.33933100       0.63015700      -0.00000000      -0.00000000      -0.00000000      -0.00000000
Ti       0.03922000       6.51625000       8.86136000       2.42190000      -0.00030000      -0.57257700       0.34859000       0.52270800      -0.00000000      -0.00000000      -0.00000000      -0.00000000
Ti       0.05904000       6.42255000      11.84086000       2.41250000      -0.00010000       0.67243600      -0.45643400      -0.37399100       0.00000000       0.00000000      -0.00000000      -0.00000000
Ti       0.23761000       6.19379000      14.82799000       2.49280000       0.00000000      -0.07838300       1.47417800       0.52477300      -0.00000000      -0.00000000      -0.00000000      -0.00000000
Ti      12.85123000       9.48425000       1.58934000       2.47580000       0.00000000      -0.18390800      -0.07141500      -0.78296800       0.00000000       0.00000000       0.00000000       0.00000000
Ti      12.43834000       9.53724000       4.53332000       2.67500000       0.00000000       0.88569400       0.78466500      -1.76919700      -0.00000000       0.00000000      -0.00000000      -0.00000000
Ti      12.75952000       9.76768000       7.30148000       2.55040000       0.00000000      -0.52895000       0.03670500       3.04358500      -0.00000000       0.00000000      -0.00000000      -0.00000000
Ti      12.96925000       9.70471000      10.43129000       2.45590000      -0.00010000       0.04627800       0.71042200      -2.62154300      -0.00000000      -0.00000000      -0.00000000      -0.00000000
Ti       0.05211000       9.47480000      13.31105000       2.54750000      -0.00010000      -0.02108000       1.57749900       0.70195600       0.00000000       0.00000000      -0.00000000       0.00000000
Ti      12.89684000       9.39525000      16.27809000       2.56040000       0.00000000      -0.19966100      -0.34904100       0.66090000       0.00000000      -0.00000000      -0.00000000      -0.00000000
O       11.91168000       3.24647000      17.72337000       0.00000000       0.00000000      -1.08407600      -0.38622700       0.50761200       0.00000000       0.00000000       0.00000000       0.00000000
O       11.82782000       3.24323000       2.85540000       0.00000000       0.00000000      -0.42515200      -0.14974400       0.62991100      -0.00000000       0.00000000       0.00000000       0.00000000
O       11.78601000       3.36222000       5.86574000       0.00000000       0.00000000       0.43377500       0.00444700       0.45734000      -0.00000000       0.00000000       0.00000000       0.00000000
O       11.84857000       3.27835000       8.84769000       0.00000000       0.00000000       0.22711700       0.38048400       0.02575900       0.00000000       0.00000000       0.00000000       0.00000000
O       12.08556000       3.23675000      11.81548000       0.00000000       0.00000000      -1.95470800       0.14561200       0.73169700       0.00000000       0.00000000       0.00000000       0.00000000
O       11.99857000       3.06872000      14.60483000       0.00000000       0.00000000      -0.82456200       0.94380000       1.37997500       0.00000000       0.00000000       0.00000000       0.00000000
O       11.55025000       9.39165000       0.13718000       0.00000000       0.00000000       0.38985600       0.20869100      -0.62117300       0.00000000      -0.00000000       0.00000000      -0.00000000
O       11.42141000       9.77467000       2.99616000       0.00000000       0.00000000      -0.06085300      -0.55167900      -1.00391200       0.00000000       0.00000000       0.00000000       0.00000000
O       11.37661000       9.93770000       6.02242000       0.00000000       0.00000000      -0.63319500      -0.46156100       0.02204100      -0.00000000       0.00000000       0.00000000       0.00000000
O       11.52562000       9.85524000       8.92328000       0.00000000       0.00000000       1.05104400      -0.17849300      -0.54429000      -0.00000000       0.00000000       0.00000000       0.00000000
O       11.66824000       9.85912000      11.77736000       0.00000000       0.00000000       0.70790400      -1.15469000       0.36835400       0.00000000      -0.00000000       0.00000000      -0.00000000
O       11.65295000       9.36702000      14.81107000       0.00000000       0.00000000       0.02946200       0.46699800      -0.45481700       0.00000000      -0.00000000       0.00000000      -0.00000000
O       10.83811000      12.89535000       0.11119000       0.00000000       0.00000000      -0.70064000      -0.71280900      -0.60697800      -0.00000000       0.00000000       0.00000000       0.00000000
O       10.85288000      12.71673000       2.93836000       0.00000000       0.00000000       0.01208500       0.48598800       0.33997600      -0.00000000       0.00000000       0.00000000       0.00000000
O       10.92367000       0.17744000       5.82862000       0.00000000       0.00000000      -0.18595300      -0.19970200       0.82056400      -0.00000000       0.00000000       0.00000000       0.00000000
O       10.97443000       0.26510000       8.71626000       0.00000000       0.00000000       0.52743500      -0.55846400       0.60304200      -0.00000000       0.00000000       0.00000000       0.00000000
O       10.92750000      12.92727000      11.81184000       0.00000000       0.00000000       0.91259300       0.45826700      -0.08045400      -0.00000000       0.00000000       0.00000000       0.00000000
O       10.85230000      12.61303000      14.91019000       0.00000000       0.00000000       1.12375300       1.23440200      -0.95979400      -0.00000000      -0.00000000       0.00000000      -0.00000000
O       11.25607000       6.39232000      17.70433000       0.00000000       0.00000000      -0.28230300      -0.01988600       1.64528500      -0.00000000      -0.00000000       0.00000000      -0.00000000
O       11.10296000       6.41431000       3.16346000       0.00000000       0.00000000       0.50985300       0.20879400      -0.49075600      -0.00000000       0.00000000       0.00000000       0.00000000
O       11.01719000       6.54408000       6.01962000       0.00000000       0.00000000      -0.42566600       0.45759600      -1.05804100       0.00000000       0.00000000       0.00000000       0.00000000
O       11.01853000       6.78550000       8.98079000       0.00000000       0.00000000      -0.27799600      -0.41605500      -0.70512000      -0.00000000       0.00000000       0.00000000       0.00000000
O       11.07741000       6.76990000      11.83819000       0.00000000       0.00000000      -0.10571300      -0.85497000      -0.43245200       0.00000000       0.00000000       0.00000000       0.00000000
O       11.18530000       6.58525000      14.89463000       0.00000000       0.00000000       0.61065000      -0.71388800      -1.39713700      -0.00000000       0.00000000       0.00000000       0.00000000
O        9.78497000       1.85056000       1.60610000       0.00000000       0.00000000       0.32153300       1.07412200      -0.32571100       0.00000000       0.00000000       0.00000000       0.00000000
O        9.90342000       2.20820000       4.55533000       0.00000000       0.00000000      -0.12273900      -2.49227100      -1.18582100      -0.00000000       0.00000000       0.00000000       0.00000000
O        9.70848000       2.29670000       7.32901000       0.00000000       0.00000000       0.64584800       0.16105500       0.76865000       0.00000000       0.00000000       0.00000000       0.00000000
O       10.02994000       2.19309000      10.24112000       0.00000000       0.00000000      -0.26413600       1.09783200       0.78584600      -0.00000000       0.00000000       0.00000000       0.00000000
O        9.96050000       2.05929000      13.20717000       0.00000000       0.00000000      -0.00602300      -0.10831100      -0.29932300       0.00000000       0.00000000       0.00000000       0.00000000
O        9.94862000       1.87151000      16.11684000       0.00000000       0.00000000      -0.09520300       0.70688700       0.71506700       0.00000000       0.00000000       0.00000000       0.00000000
O        9.81190000       4.47410000       1.49172000       0.00000000       0.00000000       0.35058500       0.41920100      -0.31284900       0.00000000       0.00000000       0.00000000       0.00000000
O        9.71555000       4.65824000       4.41797000       0.00000000       0.00000000      -0.02610800       0.54202900      -0.56648800       0.00000000       0.00000000       0.00000000       0.00000000
O        9.86975000       4.84635000       7.37349000       0.00000000       0.00000000      -0.14739800      -0.29886700      -0.00198100      -0.00000000      -0.00000000       0.00000000      -0.00000000
O        9.77892000       4.74413000      10.34262000       0.00000000       0.00000000       0.66837900       0.57008400       0.20259400       0.00000000      -0.00000000       0.00000000      -0.00000000
O       10.19587000       4.57076000      13.28769000       0.00000000       0.00000000      -0.24564800       0.79377400      -0.02369000       0.00000000       0.00000000       0.00000000       0.00000000
O        9.95025000       4.42300000      16.24802000       0.00000000       0.00000000       0.29246800      -0.62154100       0.18304300       0.00000000       0.00000000       0.00000000       0.00000000
O        9.56526000       8.40596000       1.64734000       0.00000000       0.00000000       0.06733800      -0.46571700      -0.92988400      -0.00000000       0.00000000       0.00000000       0.00000000
O        9.63008000       8.56308000       4.50990000       0.00000000       0.00000000       0.08400500      -0.12320600       0.18773400       0.00000000       0.00000000       0.00000000       0.00000000
O        9.53658000       8.70140000       7.30496000       0.00000000       0.00000000       0.41450900       0.07272600       1.15096900       0.00000000       0.00000000       0.00000000       0.00000000
O        9.63977000       8.74018000      10.22985000       0.00000000       0.00000000      -0.25831200       0.16114600       1.29289900      -0.00000000      -0.00000000       0.00000000      -0.00000000
O        9.68422000       8.49608000      13.20848000       0.00000000       0.00000000       0.05582100       0.59272600       0.39559700      -0.00000000      -0.00000000       0.00000000      -0.00000000
O        9.70067000       8.34861000      16.30685000       0.00000000       0.00000000      -0.71967000       0.39859100      -0.53314600       0.00000000       0.00000000       0.00000000       0.00000000
O        9.50194000      10.88109000       1.44700000       0.00000000       0.00000000       0.04277600       0.95183200       0.42785300      -0.00000000       0.00000000       0.00000000       0.00000000
O        9.53625000      11.10793000       4.46216000       0.00000000       0.00000000      -0.38951900       0.37939600      -0.36349000       0.00000000       0.00000000       0.00000000       0.00000000
O        9.46644000      11.39905000       7.40958000       0.00000000       0.00000000       0.01951800      -1.23541500      -0.67569100       0.00000000       0.00000000       0.00000000       0.00000000
O        9.55495000      11.35677000      10.34332000       0.00000000       0.00000000       0.23367800      -1.51977700      -0.59618900       0.00000000       0.00000000       0.00000000       0.00000000
O        9.84632000      11.05607000      13.36392000       0.00000000       0.00000000      -0.60292400      -0.19814300      -0.10505500      -0.00000000      -0.00000000       0.00000000      -0.00000000
O        9.53480000      10.94172000      16.34832000       0.00000000       0.00000000       0.00845500      -0.80297700      -0.09704000       0.00000000       0.00000000       0.00000000       0.00000000
O        8.28048000       0.25795000       0.05033000       0.00000000       0.00000000       0.14426100      -0.96689000      -0.29339000      -0.00000000       0.00000000       0.00000000       0.00000000
O        8.29304000       0.09410000       3.11932000       0.00000000       0.00000000      -0.64600400       0.32050800      -1.25083600       0.00000000       0.00000000       0.00000000       0.00000000
O        8.25339000       0.36993000       5.90391000       0.00000000       0.00000000       0.92747700      -0.08861700      -0.46337800      -0.00000000       0.00000000       0.00000000       0.00000000
O        8.43241000       0.50095000       8.90400000       0.00000000       0.00000000      -1.05123700      -0.22486100      -0.35758300      -0.00000000       0.00000000       0.00000000       0.00000000
O        8.37318000       0.25781000      11.75463000       0.00000000       0.00000000       0.17138200       0.46151000       0.70967600       0.00000000       0.00000000       0.00000000       0.00000000
O        8.35456000       0.08008000      14.62598000       0.00000000       0.00000000      -0.78876600       0.35293200       1.03288300       0.00000000       0.00000000       0.00000000       0.00000000
O        8.72468000       6.30394000       0.03813000       0.00000000       0.00000000      -0.68477900       0.95192500       1.00425600       0.00000000       0.00000000       0.00000000       0.00000000
O        8.49882000       6.54994000       2.98462000       0.00000000       0.00000000       1.58937400      -0.05449400      -0.19953500      -0.00000000      -0.00000000       0.00000000      -0.00000000
O        8.41017000       6.59013000       5.92906000       0.00000000       0.00000000       0.25598300       0.31078700       0.80184800       0.00000000       0.00000000       0.00000000       0.00000000
O        8.38884000       6.89297000       8.90294000       0.00000000       0.00000000       1.00721000      -0.63031000      -0.63591700      -0.00000000       0.00000000       0.00000000       0.00000000
O        8.42988000       6.58503000      11.96383000       0.00000000       0.00000000       1.74824000       0.17088900      -0.92596700       0.00000000       0.00000000       0.00000000       0.00000000
O        8.67893000       6.33741000      14.79892000       0.00000000       0.00000000      -1.17109100       0.38184300       0.06109800       0.00000000       0.00000000       0.00000000       0.00000000
O        7.87740000       3.04071000       0.06618000       0.00000000       0.00000000       0.50264700       0.16082300      -0.16867700       0.00000000       0.00000000       0.00000000       0.00000000
O        7.80851000       3.10430000       3.08150000       0.00000000       0.00000000      -0.04478300       0.08120500      -0.57243700      -0.00000000       0.00000000       0.00000000       0.00000000
O        7.78696000       3.12723000       5.87912000       0.00000000       0.00000000       0.11364300       0.79888400      -0.10620400       0.00000000       0.00000000       0.00000000       0.00000000
O        7.92169000       3.52828000       8.77106000       0.00000000       0.00000000       0.03686100      -0.69280100       0.88166400       0.00000000       0.00000000       0.00000000       0.00000000
O        8.05932000       3.35075000      11.86673000       0.00000000       0.00000000      -0.65974200      -0.34371500      -0.30969200       0.00000000       0.00000000       0.00000000       0.00000000
O        8.00686000       3.26318000      14.77357000       0.00000000       0.00000000       0.01751400      -0.50954400       0.28613300       0.00000000       0.00000000       0.00000000       0.00000000
O        7.58013000       9.92102000       0.21152000       0.00000000       0.00000000       0.47022700      -0.87251800      -1.01003800      -0.00000000       0.00000000       0.00000000       0.00000000
O        7.49520000       9.79540000       3.10515000       0.00000000       0.00000000      -0.74871300       0.13411700      -0.95466500      -0.00000000       0.00000000       0.00000000      -0.00000000
O        7.45282000       9.79731000       5.82448000       0.00000000       0.00000000      -0.22065100       0.01386600       0.35072300      -0.00000000       0.00000000       0.00000000       0.00000000
O        7.70882000       9.84694000       8.72889000       0.00000000       0.00000000      -1.99757400       0.09255500       0.44441200       0.00000000       0.00000000       0.00000000       0.00000000
O        7.75562000      10.07078000      11.85596000       0.00000000       0.00000000      -0.23430100      -0.73028200      -1.04368700      -0.00000000      -0.00000000       0.00000000      -0.00000000
O        7.72243000       9.71617000      14.68680000       0.00000000       0.00000000       0.96345800       0.66777400       1.95945200       0.00000000       0.00000000       0.00000000       0.00000000
O        6.25090000       1.23796000       1.56015000       0.00000000       0.00000000       0.13797200       1.05489700      -0.27048500       0.00000000       0.00000000       0.00000000       0.00000000
O        5.98543000       1.40270000       4.47336000       0.00000000       0.00000000       0.79468300      -0.70028300      -0.87021500      -0.00000000       0.00000000       0.00000000       0.00000000
O        6.20323000       1.48004000       7.44773000       0.00000000       0.00000000       0.08463700       0.04437800      -1.04792600      -0.00000000      -0.00000000       0.00000000      -0.00000000
O        6.13194000       1.54917000      10.33839000       0.00000000       0.00000000       1.63277500       0.01556800       0.41630500       0.00000000       0.00000000       0.00000000       0.00000000
O        6.09443000       1.34520000      13.35611000       0.00000000       0.00000000       1.13401600       1.16374000       0.22791900      -0.00000000       0.00000000       0.00000000       0.00000000
O        6.18760000       1.27920000      16.32891000       0.00000000       0.00000000       0.51342500       0.75458900      -0.87514300      -0.00000000       0.00000000       0.00000000       0.00000000
O        6.78796000       5.14833000       1.46113000       0.00000000       0.00000000      -0.31595500       1.09091200       0.66483900      -0.00000000      -0.00000000       0.00000000      -0.00000000
O        6.60579000       5.24374000       4.39110000       0.00000000       0.00000000       0.06520400       0.28849400       0.22423300       0.00000000       0.00000000       0.00000000       0.00000000
O        6.56245000       5.35112000       7.27616000       0.00000000       0.00000000       0.48432600       0.53923500       1.17594700       0.00000000       0.00000000       0.00000000       0.00000000
O        6.70443000       5.47942000      10.20892000       0.00000000       0.00000000      -0.18788800      -0.64991200       1.37175100       0.00000000       0.00000000       0.00000000       0.00000000
O        6.74578000       5.27737000      13.29871000       0.00000000       0.00000000      -0.32685500       0.87004100       0.01401800       0.00000000       0.00000000       0.00000000       0.00000000
O        6.80481000       5.16673000      16.31419000       0.00000000       0.00000000      -0.16897300       1.68982200      -0.69492400       0.00000000       0.00000000       0.00000000       0.00000000
O        6.46298000       7.75541000       1.43811000       0.00000000       0.00000000       0.04061300       0.14485500       0.20634900       0.00000000       0.00000000       0.00000000       0.00000000
O        6.53334000       7.86812000       4.40884000       0.00000000       0.00000000      -1.01510200      -0.52323000      -0.02804800       0.00000000       0.00000000       0.00000000       0.00000000
O        6.11089000       7.95851000       7.27978000       0.00000000       0.00000000       0.85788700      -0.51500200       0.26707000      -0.00000000       0.00000000       0.00000000       0.00000000
O        6.38112000       7.99349000      10.22397000       0.00000000       0.00000000      -0.10062100       0.33072800       0.48852000       0.00000000       0.00000000       0.00000000       0.00000000
O        6.50535000       7.92497000      13.30209000       0.00000000       0.00000000      -0.02239300      -1.29804500       0.09744400       0.00000000       0.00000000       0.00000000       0.00000000
O        6.63206000       7.83277000      16.27347000       0.00000000       0.00000000       0.13520500      -0.98712800       0.17940700       0.00000000       0.00000000       0.00000000       0.00000000
O        6.37595000      11.76698000       1.59937000       0.00000000       0.00000000       0.03503400      -1.49261600      -0.17847300      -0.00000000      -0.00000000       0.00000000      -0.00000000
O        6.47520000      11.75972000       4.51160000       0.00000000       0.00000000      -0.61677200       0.48334000      -0.41490800      -0.00000000       0.00000000       0.00000000       0.00000000
O        6.48286000      11.85812000       7.33774000       0.00000000       0.00000000       0.10056000       1.27693400       0.24858000       0.00000000       0.00000000       0.00000000       0.00000000
O        6.42032000      11.96464000      10.28611000       0.00000000       0.00000000       0.71921500      -0.71596100       0.04180300       0.00000000       0.00000000       0.00000000       0.00000000
O        6.39869000      11.83857000      13.25513000       0.00000000       0.00000000       0.35137600      -0.08170400       0.39063700       0.00000000       0.00000000       0.00000000       0.00000000
O        6.47427000      11.83231000      16.27965000       0.00000000       0.00000000       0.47941200      -2.51590600      -0.26687300      -0.00000000       0.00000000       0.00000000       0.00000000
O        5.29939000       3.41945000       0.06320000       0.00000000       0.00000000       0.54203000      -0.76425600      -0.20093800       0.00000000       0.00000000       0.00000000       0.00000000
O        5.23350000       3.28559000       2.89567000       0.00000000       0.00000000      -1.36630600       0.43727600       0.88417800       0.00000000       0.00000000       0.00000000       0.00000000
O        5.30334000       3.60202000       5.87359000       0.00000000       0.00000000      -2.07683000      -0.50016800       0.81492700      -0.00000000       0.00000000       0.00000000       0.00000000
O        5.42512000       3.70106000       8.90374000       0.00000000       0.00000000      -0.87188100      -0.68812200       0.00982400       0.00000000       0.01100000       0.00000000       0.01100000
O        5.48435000       3.56255000      11.89442000       0.00000000       0.00000000      -0.63627500      -0.40888200      -0.68832500       0.00000000       0.00100000       0.00000000       0.00100000
O        5.42801000       3.46264000      14.87917000       0.00000000       0.00000000      -0.57842100      -0.66895900      -1.15788400       0.00000000       0.00000000       0.00000000       0.00000000
O        5.09315000       9.64524000       0.01389000       0.00000000       0.00000000      -0.12097900       0.44485200      -0.12431400       0.00000000       0.00000000       0.00000000       0.00000000
O        4.86364000       9.61944000       2.97255000       0.00000000       0.00000000       0.83442900       0.66774900      -0.19531800       0.00000000       0.00000000       0.00000000       0.00000000
O        4.86209000      10.13113000       5.91056000       0.00000000       0.00000000      -0.19019800      -0.47902500      -0.41208600       0.00000000       0.00000000       0.00000000       0.00000000
O        5.02402000      10.17533000       8.76186000       0.00000000       0.00000000       0.18030400      -0.96371300       1.18196400       0.00000000       0.00000000       0.00000000       0.00000000
O        5.22744000       9.97425000      11.78720000       0.00000000       0.00000000      -0.67651100      -0.70963000      -0.55720500       0.00000000       0.00000000       0.00000000       0.00000000
O        5.14816000       9.68338000      14.85197000       0.00000000       0.00000000       0.83037200       0.84967700      -0.16313000       0.00000000       0.00000000       0.00000000       0.00000000
O        4.40350000      12.49499000      17.71789000       0.00000000       0.00000000      -0.36133900       0.53359100       0.25614400      -0.00000000       0.00000000       0.00000000       0.00000000
O        4.32099000      12.87684000       2.85943000       0.00000000       0.00000000       0.80074200      -0.75477700       1.51085500      -0.00000000       0.00000000       0.00000000       0.00000000
O        4.39778000      12.92861000       5.73983000       0.00000000       0.00000000      -0.07763200      -1.04640300      -0.30652500      -0.00000000       0.00100000       0.00000000       0.00100000
O        4.45498000      12.81545000       8.74826000       0.00000000       0.00000000       0.98970500       0.06321500       0.46303500       0.00000000       0.00100000       0.00000000       0.00100000
O        4.48694000      12.70697000      11.78953000       0.00000000       0.00000000      -0.52490000       0.25165900       0.11717700       0.00000000       0.00100000       0.00000000       0.00100000
O        4.37862000      12.70728000      14.75493000       0.00000000       0.00000000       0.75963600      -0.43092800       1.18624000      -0.00000000       0.00000000       0.00000000       0.00000000
O        4.68912000       6.10332000       0.02054000       0.00000000       0.00000000       1.84564600       1.08530400       1.58702800      -0.00000000       0.00000000       0.00000000       0.00000000
O        4.64944000       6.34446000       3.09021000       0.00000000       0.00000000      -0.59175600       0.48099300      -1.02944300      -0.00000000       0.00000000       0.00000000       0.00000000
O        4.49955000       6.47931000       5.89077000       0.00000000       0.00000000      -0.81087900       0.07824300      -0.05685500       0.00000000       0.00100000       0.00000000       0.00100000
O        4.49327000       6.43141000       8.74555000       0.00000000       0.00000000      -0.52307100       0.13777500       0.70751100      -0.00000000      -0.00100000       0.00000000      -0.00200000
O        4.69346000       6.52034000      11.83894000       0.00000000       0.00000000      -1.93141000      -0.46676000      -0.64028800       0.00000000       0.00100000       0.00000000       0.00100000
O        4.69798000       6.19714000      14.75570000       0.00000000       0.00000000       1.04955900       0.58389500      -0.25025100      -0.00000000       0.00000000       0.00000000       0.00000000
O        3.35901000       1.73427000       1.41311000       0.00000000       0.00000000      -0.03329400       0.83293400       0.83810800       0.00000000       0.00000000       0.00000000       0.00000000
O        3.27071000       1.90038000       4.32979000       0.00000000       0.00000000       0.27192000       0.93460800       1.11603900       0.00000000       0.00100000       0.00000000       0.00100000
O        3.56826000       1.96731000       7.25921000       0.00000000       0.00000000      -0.31304400       1.40021500      -0.48131000       0.00100000       0.01200000       0.00000000       0.01300000
O        3.80402000       1.94123000      10.30772000       0.00000000       0.00000000      -1.64313200       0.08111300       0.43633900       0.00100000       0.00900000       0.00000000       0.01000000
O        3.47874000       1.72633000      13.27413000       0.00000000       0.00000000       0.29855200       1.37493900      -0.41140200      -0.00000000       0.00000000       0.00000000       0.00000000
O        3.60214000       1.73078000      16.27928000       0.00000000       0.00000000      -0.43811100      -0.74157300      -0.46487700       0.00000000       0.00000000       0.00000000       0.00000000
O        3.30271000       4.32766000       1.42233000       0.00000000       0.00000000      -0.76109300       0.55403500       0.70661800       0.00000000       0.00000000       0.00000000       0.00000000
O        3.21747000       4.50235000       4.28112000       0.00000000       0.00000000      -0.19053700      -0.49169500       0.67929300       0.00000000       0.00100000       0.00000000       0.00100000
O        3.12721000       4.63330000       7.17386000       0.00000000       0.00000000       0.12111400      -0.43997600       0.68866100       0.00100000       0.01300000       0.00000000       0.01300000
O        3.25572000       4.55890000      10.45601000       0.00000000       0.00000000       0.07254400       0.03925700      -0.19801100       0.00000000       0.00900000       0.00000000       0.01000000
O        3.47961000       4.28446000      13.34669000       0.00000000       0.00000000      -0.95441400       0.67361600      -0.02339000       0.00000000       0.00100000       0.00000000       0.00100000
O        3.35272000       4.22394000      16.29142000       0.00000000       0.00000000      -0.80613300       0.81602400      -1.35790200       0.00000000       0.00000000       0.00000000       0.00000000
O        3.08606000       8.33645000       1.53079000       0.00000000       0.00000000       0.57716800      -0.43683500      -0.43055600       0.00000000       0.00000000       0.00000000       0.00000000
O        3.05561000       8.47142000       4.51736000       0.00000000       0.00000000       0.39492900       0.38089800      -0.35148900       0.00000000       0.00000000       0.00000000       0.00000000
O        3.06349000       8.60345000       7.20547000       0.00000000       0.00000000       0.34372700      -0.34008400       0.15476600      -0.00000000       0.00100000       0.00000000       0.00100000
O        3.33563000       8.44712000      10.20415000       0.00000000       0.00000000       0.12138700       0.29611100      -0.75558400      -0.00000000       0.00100000       0.00000000       0.00100000
O        3.26280000       8.29367000      13.16142000       0.00000000       0.00000000       0.58639300      -0.17512000       0.60794600       0.00000000       0.00000000       0.00000000       0.00000000
O        3.36063000       8.18886000      16.14604000       0.00000000       0.00000000      -0.29816900       0.43626700       0.98226700       0.00000000       0.00000000       0.00000000       0.00000000
O        2.91190000      10.85422000       1.48132000       0.00000000       0.00000000       0.20756800       0.01506400      -0.72770100       0.00000000       0.00000000       0.00000000       0.00000000
O        2.66849000      11.10442000       4.17274000       0.00000000       0.00000000       1.12213800      -0.39895500       1.98429800       0.00000000       0.00000000       0.00000000       0.00000000
O        2.81167000      11.17722000       7.25350000       0.00000000       0.00000000       0.27680100      -0.74773300      -0.11827500      -0.00000000       0.00100000       0.00000000       0.00100000
O        2.93612000      10.97264000      10.26554000       0.00000000       0.00000000       0.38073400       0.17293500       0.28705600      -0.00000000       0.00100000       0.00000000       0.00100000
O        2.99415000      10.84718000      13.31835000       0.00000000       0.00000000       0.61193300       0.00247500      -0.70906200       0.00000000       0.00000000       0.00000000       0.00000000
O        2.99072000      10.75567000      16.18148000       0.00000000       0.00000000       0.40906500       0.42353400       0.37321800       0.00000000       0.00000000       0.00000000       0.00000000
O        1.83084000      12.95469000      17.67423000       0.00000000       0.00000000       0.01454000      -0.50523500       0.01335100      -0.00000000       0.00000000       0.00000000       0.00000000
O        1.79646000       0.06291000       2.89083000       0.00000000       0.00000000      -0.65643700      -0.14931900       0.00210700      -0.00000000       0.00000000       0.00000000       0.00000000
O        1.86958000       0.21749000       5.87935000       0.00000000       0.00000000      -0.11118500      -0.13818700      -0.20549600      -0.00000000       0.00000000       0.00000000       0.00000000
O        2.02430000       0.30012000       8.78394000       0.00000000       0.00000000      -0.56929700      -0.61635600       0.28584400      -0.00000000       0.00000000       0.00000000      -0.00000000
O        1.93557000       0.03426000      11.75916000       0.00000000       0.00000000       0.54227100       0.01118000       0.39319000      -0.00000000       0.00000000       0.00000000       0.00000000
O        1.85533000       0.03527000      14.76182000       0.00000000       0.00000000       0.55919300      -0.95096000       0.38773400      -0.00000000       0.00000000       0.00000000       0.00000000
O        2.20263000       6.29735000       0.05261000       0.00000000       0.00000000      -0.01353900      -0.14314500      -0.43306700      -0.00000000       0.00000000       0.00000000       0.00000000
O        2.10111000       6.50204000       2.97605000       0.00000000       0.00000000      -0.29544300      -0.40756700      -0.30689900      -0.00000000       0.00000000       0.00000000       0.00000000
O        1.93003000       6.47819000       5.87864000       0.00000000       0.00000000      -0.31301400       0.33446000      -0.51148100       0.00000000       0.00100000       0.00000000       0.00100000
O        1.92872000       6.67830000       8.85977000       0.00000000       0.00000000       1.14892500      -0.31966800       0.08657400      -0.00000000       0.00000000       0.00000000       0.00000000
O        2.03894000       6.39938000      11.84579000       0.00000000       0.00000000       1.02620500       0.66969300      -0.40331700       0.00000000       0.00100000       0.00000000       0.00100000
O        2.14426000       6.26095000      14.79348000       0.00000000       0.00000000       1.24215900       0.29990300       0.05484700      -0.00000000       0.00000000       0.00000000       0.00000000
O        1.39507000       2.78882000      17.66076000       0.00000000       0.00000000       0.03831300       0.20717700       0.48178700      -0.00000000       0.00000000       0.00000000       0.00000000
O        1.29003000       2.92776000       2.95163000       0.00000000       0.00000000       2.08132700      -0.09427500      -0.11668000       0.00000000       0.00000000       0.00000000       0.00000000
O        1.33703000       3.20343000       5.88839000       0.00000000       0.00000000       0.23223100      -0.86310100      -0.37347200       0.00000000       0.00100000       0.00000000       0.00100000
O        1.37021000       3.01530000       8.87713000       0.00000000       0.00000000       2.02819600       0.56142000      -1.35038800       0.00000000       0.00700000       0.00000000       0.00700000
O        1.53323000       2.85476000      11.75839000       0.00000000       0.00000000       1.12905100       0.04995300       0.35867400      -0.00000000       0.00000000       0.00000000       0.00000000
O        1.45228000       2.56765000      14.75296000       0.00000000       0.00000000       1.40316800       1.53274200       1.30446100       0.00000000       0.00000000       0.00000000       0.00000000
O        1.21427000       9.55116000      17.70238000       0.00000000       0.00000000      -1.17511600      -0.13773700       1.04750900      -0.00000000      -0.00000000       0.00000000      -0.00000000
O        0.96488000       9.64116000       3.11218000       0.00000000       0.00000000       0.26063900      -0.26846800      -0.42074600      -0.00000000      -0.00000000       0.00000000      -0.00000000
O        0.90851000       9.62337000       5.78506000       0.00000000       0.00000000       1.43504000       0.23181900       0.57584000       0.00000000       0.00000000       0.00000000       0.00000000
O        1.13548000       9.79618000       8.67420000       0.00000000       0.00000000      -0.58727700      -0.56423000       1.42755000       0.00000000       0.00000000       0.00000000       0.00000000
O        1.34264000       9.43815000      11.82031000       0.00000000       0.00000000      -1.27636200       0.46839400      -0.11960500       0.00000000       0.00000000       0.00000000       0.00000000
O        1.20185000       9.63734000      14.84791000       0.00000000       0.00000000       0.39013700      -0.96681000      -1.00615700       0.00000000       0.00000000       0.00000000       0.00000000
O       12.79921000       0.96234000       1.47346000       0.00000000       0.00000000       0.09138000       0.51391200       0.46276000      -0.00000000      -0.00000000       0.00000000      -0.00000000
O       12.79185000       1.16886000       4.24902000       0.00000000       0.00000000       0.18467000      -0.10144300       1.16431100       0.00000000       0.00000000       0.00000000       0.00000000
O        0.01316000       1.31275000       7.34119000       0.00000000       0.00000000      -0.28905400       0.13883800      -0.27976000       0.00000000       0.00000000       0.00000000       0.00000000
O        0.00852000       1.13148000      10.31691000       0.00000000       0.00000000      -0.40518700       1.50401400       0.77023500       0.00000000       0.00000000       0.00000000       0.00000000
O       12.84972000       1.04843000      13.40351000       0.00000000       0.00000000      -0.06609000       0.33654400      -1.07061800       0.00000000       0.00000000       0.00000000       0.00000000
O       12.73939000       0.99123000      16.38813000       0.00000000       0.00000000       0.26980700       0.61983900      -1.78650300      -0.00000000       0.00000000       0.00000000       0.00000000
O        0.34067000       4.98383000       1.62975000       0.00000000       0.00000000      -0.39343000      -0.56929400      -0.64103700      -0.00000000      -0.00000000       0.00000000      -0.00000000
O        0.30210000       5.04845000       4.47422000       0.00000000       0.00000000      -0.83214200       0.85922200      -0.16389800       0.00000000       0.00000000       0.00000000       0.00000000
O        0.16673000       5.21293000       7.44139000       0.00000000       0.00000000      -0.45667400       0.69678500      -0.35086700       0.00000000       0.00000000       0.00000000       0.00000000
O        0.19970000       5.11028000      10.37064000       0.00000000       0.00000000      -0.53021500       1.31504900      -0.41680800       0.00000000       0.00000000       0.00000000       0.00000000
O        0.55781000       5.13725000      13.28197000       0.00000000       0.00000000      -1.89733600      -1.84921800      -0.36150100      -0.00000000       0.00000000       0.00000000       0.00000000
O        0.27603000       4.92946000      16.25760000       0.00000000       0.00000000      -0.13048100      -0.60109400      -0.13093400       0.00000000      -0.00000000       0.00000000      -0.00000000
O        0.18752000       7.53106000       1.48235000       0.00000000       0.00000000      -0.71593400       0.22806200       0.36485800       0.00000000       0.00000000       0.00000000       0.00000000
O        0.00698000       7.68245000       4.31389000       0.00000000       0.00000000      -0.57268500      -0.69113900       1.54269100       0.00000000       0.00000000       0.00000000       0.00000000
O       12.90894000       7.78035000       7.26847000       0.00000000       0.00000000      -0.11729800      -0.56586800       0.64957800       0.00000000       0.00000000       0.00000000       0.00000000
O        0.01457000       7.77380000      10.38246000       0.00000000       0.00000000       0.22841200      -0.79989300      -0.12886900       0.00000000       0.00000000       0.00000000       0.00000000
O        0.01961000       7.64535000      13.39211000       0.00000000       0.00000000       0.43188400      -1.83706600      -0.29729000       0.00000000       0.00000000       0.00000000       0.00000000
O        0.25219000       7.49874000      16.39262000       0.00000000       0.00000000      -0.02759500      -0.48198900      -0.85803900      -0.00000000      -0.00000000       0.00000000      -0.00000000
O       12.80535000      11.41392000       1.41383000       0.00000000       0.00000000       0.45437000       0.28227300       1.23232100      -0.00000000      -0.00000000       0.00000000      -0.00000000
O       12.86317000      11.54005000       4.60573000       0.00000000       0.00000000      -0.11224900       0.90202300      -1.00994900       0.00000000       0.00000000       0.00000000       0.00000000
O       12.88003000      11.77313000       7.38511000       0.00000000       0.00000000       0.09257200      -1.19379400      -0.74168200       0.00000000       0.00000000       0.00000000       0.00000000
O       12.95120000      11.67546000      10.38091000       0.00000000       0.00000000       0.27744100      -0.89353400      -1.40600000       0.00000000       0.00000000       0.00000000       0.00000000
O       12.88557000      11.42832000      13.18723000       0.00000000       0.00000000       0.52123100       1.53684800       1.11586600       0.00000000       0.00000000       0.00000000       0.00000000
O       12.90368000      11.31340000      16.20006000       0.00000000       0.00000000      -0.33088600       2.37999900       0.65332700      -0.00000000       0.00000000       0.00000000       0.00000000
288
Lattice="12.9730319977 0.0 0.0 0.0 12.9730319977 0.0 0.0 0.0 17.7244205475" Properties=species:S:1:pos:R:3:decomposed_charges:R:1:decomposed_magmoms:R:1:forces:R:3:magmoms:R:4 energy=-2177.78546283 pbc="T T T"
Ti       9.47716000      12.80633000       1.52584000       2.45690000      -0.00010000       0.88238200       1.39081000      -0.89601700      -0.00000000      -0.00000000      -0.00000000      -0.00000000
Ti       9.61793000       0.16867000       4.42986000       2.47110000      -0.00010000       0.02966500      -0.21520900       1.05113800       0.00000000      -0.00000000      -0.00000000      -0.00000000
Ti       9.65071000       0.44519000       7.35042000       2.52880000      -0.00020000      -0.66396100      -2.00320900      -0.32541900      -0.00000000      -0.00000000      -0.00000000      -0.00000000
Ti       9.79066000       0.33395000      10.27373000       2.54880000      -0.00020000      -0.45316300      -0.71335500       0.80339100       0.00000000      -0.00000000      -0.00000000      -0.00000000
Ti       9.73034000       0.17372000      13.29442000       2.46560000       0.00000000      -0.20802000      -1.72847200      -0.55907500       0.00000000       0.00000000       0.00000000       0.00000000
Ti       9.52692000      12.90783000      16.23024000       2.43140000       0.00000000       0.56738200       0.28064500       0.74262400       0.00000000       0.00000000       0.00000000       0.00000000
Ti       9.92282000       3.09801000       0.03733000       2.27180000       0.00000000      -1.35067100      -0.33535400       0.01826800       0.00000000       0.00000000       0.00000000       0.00000000
Ti       9.77411000       3.28092000       2.98766000       2.50010000      -0.00010000       0.29784300      -0.25716200      -1.00166000       0.00000000      -0.00000000      -0.00000000      -0.00000000
Ti       9.79817000       3.51048000       5.87935000       2.64850000      -0.00010000      -0.41296200       0.65688900       0.52292100       0.00000000       0.00000000      -0.00000000      -0.00000000
Ti       9.94490000       3.59105000       8.77907000       2.53070000       0.00030000      -0.75888000      -0.08722200       1.13047500       0.00000000       0.00000000       0.00000000       0.00000000
Ti      10.10269000       3.44212000      11.74294000       2.44720000       0.00000000      -0.64729800      -0.50565900      -0.67420500       0.00000000      -0.00000000      -0.00000000      -0.00000000
Ti      10.03635000       3.23849000      14.69181000       2.49250000      -0.00010000      -0.52923300      -0.20350900       1.68736300       0.00000000      -0.00000000      -0.00000000      -0.00000000
Ti      10.05996000       6.54204000       1.62783000       2.38860000       0.00000000      -1.46288700      -1.79056100      -1.89795100       0.00000000      -0.00000000      -0.00000000      -0.00000000
Ti       9.66987000       6.61987000       4.54347000       2.57460000       0.00000000      -0.65085200      -0.30402200      -0.49494600      -0.00000000       0.00000000      -0.00000000      -0.00000000
Ti       9.72803000       6.84953000       7.44703000       2.49090000      -0.00010000      -0.84828800      -1.13933900       1.09193900      -0.00000000      -0.00000000      -0.00000000      -0.00000000
Ti       9.67490000       6.86866000      10.41686000       2.42990000      -0.00010000       0.08168000      -1.19595500      -0.34738700      -0.00000000      -0.00000000      -0.00000000      -0.00000000
Ti       9.87705000       6.51730000      13.34841000       2.47360000       0.00000000       0.23083200       1.11462800      -0.09825500      -0.00000000       0.00000000      -0.00000000      -0.00000000
Ti       9.95198000       6.35841000      16.30017000       2.62440000       0.00000000      -0.06458700       0.12864400       0.35484200      -0.00000000      -0.00000000      -0.00000000      -0.00000000
Ti       9.62265000       9.55771000       0.02555000       2.50900000       0.00000000      -0.02548400       0.64273800      -0.31698000      -0.00000000      -0.00000000      -0.00000000      -0.00000000
Ti       9.35484000       9.74925000       2.99095000       2.58180000       0.00000000       1.50338000       0.68753100       0.99036000      -0.00000000       0.00000000      -0.00000000      -0.00000000
Ti       9.31075000       9.94513000       5.93548000       2.57940000       0.00000000       0.59439700       1.36329400      -0.47643500      -0.00000000      -0.00000000      -0.00000000      -0.00000000
Ti       9.59297000      10.13115000       8.83761000       2.52800000       0.00000000       1.29261600       0.25971900      -0.20369400       0.00000000      -0.00000000      -0.00000000      -0.00000000
Ti       9.78186000      10.00496000      11.77509000       2.45240000       0.00000000      -1.78933200      -0.23488800       0.87558600      -0.00000000      -0.00000000      -0.00000000      -0.00000000
Ti       9.77916000       9.68845000      14.77133000       2.39490000       0.00010000      -0.86303800       0.09410900      -0.50144000       0.00000000       0.00000000       0.00000000       0.00000000
Ti       6.29358000       0.03935000       0.04651000       2.55480000       0.00000000       0.50187600       0.39581700       0.83865000      -0.00000000       0.00000000       0.00000000       0.00000000
Ti       6.28196000       0.02360000       3.03806000       2.55780000       0.00000000      -0.07594900       0.49790300      -0.77349300      -0.00000000      -0.00000000      -0.00000000      -0.00000000
Ti       6.27024000       0.17615000       5.87425000       2.57200000      -0.00020000       2.57226000      -0.33739200       2.13913100      -0.00000000      -0.00000000      -0.00000000      -0.00000000
Ti       6.41391000       0.32948000       8.91566000       2.50840000      -0.00020000       0.60244500      -1.29623500      -1.22787700      -0.00000000      -0.00000000      -0.00000000      -0.00000000
Ti       6.38783000       0.25354000      11.82301000       2.47010000       0.00010000       0.70588700      -0.92389000       0.02628000      -0.00000000      -0.00000000      -0.00000000      -0.00000000
Ti       6.29188000       0.00189000      14.78492000       2.53140000       0.00000000       0.86902100       1.05338700      -0.22168100       0.00000000      -0.00000000      -0.00000000      -0.00000000
Ti       6.51596000       3.24397000       1.58342000       2.56260000       0.00000000       1.53928100      -0.79435400      -2.56847200       0.00000000       0.00000000      -0.00000000      -0.00000000
Ti       6.41445000       3.28458000       4.43242000       2.64360000       0.00000000       1.58841200       0.49423100       0.83843300      -0.00000000      -0.00000000      -0.00000000      -0.00000000
Ti       6.57665000       3.41945000       7.37863000       2.55040000       0.00040000       0.24606900      -0.35576600      -0.17293700       0.00000000       0.00000000       0.00000000       0.00100000
Ti       6.70809000       3.51567000      10.37606000       2.39090000      -0.00010000       0.21109600       0.17902400      -0.12872500       0.00000000       0.00000000      -0.00000000       0.00000000
Ti       6.73762000       3.32191000      13.37317000       2.45610000      -0.00010000      -0.05182300       0.43361500      -0.86512400       0.00000000       0.00000000      -0.00000000      -0.00000000
Ti       6.63017000       3.27346000      16.31248000       2.50890000       0.00010000       0.61565500      -1.12095900       1.45214400       0.00000000       0.00000000      -0.00000000      -0.00000000
Ti       6.80142000       6.45223000       0.02498000       2.46580000       0.00000000      -0.36109500      -0.06721900      -0.50380700      -0.00000000       0.00000000       0.00000000       0.00000000
Ti       6.59020000       6.49732000       2.94037000       2.53180000       0.00000000       0.08276700       0.42532100       0.40563200       0.00000000       0.00000000       0.00000000       0.00000000
Ti       6.35605000       6.52649000       5.86339000       2.59100000       0.00000000       2.00852500       1.85100000      -0.90199600       0.00000000       0.00000000      -0.00000000      -0.00000000
Ti       6.43384000       6.66386000       8.75914000       2.52250000      -0.00050000      -0.04749500       0.89170200      -0.84087500      -0.00000000      -0.00000000      -0.00100000      -0.00100000
Ti       6.52181000       6.74579000      11.71571000       2.51850000      -0.00030000       1.57387800      -0.26242100       0.97773100       0.00000000       0.00000000      -0.00000000      -0.00000000
Ti       6.70677000       6.52001000      14.74834000       2.34580000       0.00000000      -0.20829300       0.06005500      -0.27014000      -0.00000000      -0.00000000      -0.00000000      -0.00000000
Ti       6.22054000       9.73564000       1.58036000       2.47040000       0.00000000       0.64801200       0.15156800      -1.64141100      -0.00000000      -0.00000000      -0.00000000      -0.00000000
Ti       6.02800000       9.86193000       4.43471000       2.56640000       0.00000000       1.56757000      -1.19626100       1.61136800      -0.00000000      -0.00000000      -0.00000000      -0.00000000
Ti       6.23411000       9.97456000       7.36101000       2.55980000       0.00000000       0.28619200      -0.57213400      -0.97341300       0.00000000       0.00000000      -0.00000000      -0.00000000
Ti       6.47659000      10.00250000      10.23238000       2.33350000       0.00010000      -0.12235800       0.30378100       1.85358900       0.00000000       0.00000000      -0.00000000      -0.00000000
Ti       6.47045000       9.90130000      13.34386000       2.53980000       0.00000000      -0.45441500      -0.34830400      -1.58633000       0.00000000       0.00000000      -0.00000000      -0.00000000
Ti       6.50332000       9.81047000      16.31806000       2.35470000      -0.00010000      -0.41363800      -0.59169900      -0.04410100      -0.00000000      -0.00000000      -0.00000000      -0.00000000
Ti       3.07160000      12.77913000       1.45710000       2.61150000      -0.00010000      -0.21793000       0.21331800      -0.26136900       0.00000000      -0.00000000      -0.00000000      -0.00000000
Ti       3.03590000       0.03488000       4.39230000       2.67900000      -0.00140000      -0.30418800      -0.29233600      -1.51361400      -0.00000000      -0.00000000      -0.00100000      -0.00100000
Ti       3.32833000       0.11653000       7.26030000       2.65960000      -0.01400000      -2.25593900      -0.27807500       2.28022100      -0.00100000      -0.00100000      -0.01400000      -0.01600000
Ti       3.28126000       0.03030000      10.28683000       2.42680000      -0.01080000      -0.75831100      -0.06239100      -0.06132800      -0.00000000      -0.00100000      -0.01100000      -0.01200000
Ti       3.21187000      12.79201000      13.30542000       2.54590000      -0.00030000      -1.32577300      -0.66563900      -1.41970400       0.00000000       0.00000000      -0.00000000      -0.00000000
Ti       3.12504000      12.63689000      16.29901000       2.52570000      -0.00010000      -0.28049700       1.38696000      -1.16795000       0.00000000      -0.00000000      -0.00000000      -0.00000000
Ti       3.32486000       2.96933000      17.71707000       2.62790000      -0.00050000       1.49224400       0.29393200      -0.25480000      -0.00000000       0.00000000      -0.00100000      -0.00100000
Ti       3.23598000       3.14358000       2.93502000       2.56850000      -0.00450000       0.96365900       0.29730700      -1.50213800      -0.00000000      -0.00000000      -0.00500000      -0.00500000
Ti       3.22420000       3.25918000       5.84227000       2.49480000      -0.04640000       1.78977300       0.92013400       0.86826900      -0.00100000       0.00000000      -0.04600000      -0.04700000
Ti       3.44491000       3.34290000       8.76410000       2.37700000      -0.88140000       0.01879200       0.10658400       0.94042900      -0.00900000      -0.02100000      -0.87900000      -0.90900000
Ti       3.48419000       3.14929000      11.78295000       2.45140000      -0.01840000       1.08277100      -0.31947600      -1.39575800      -0.00100000       0.00100000      -0.01800000      -0.01800000
Ti       3.53236000       2.93821000      14.75787000       2.46290000      -0.00230000      -0.49405100      -0.08571100       1.24339800      -0.00000000      -0.00000000      -0.00200000      -0.00200000
Ti       3.40666000       6.32173000       1.54502000       2.43190000      -0.00030000       0.02511300       0.15930000      -0.71216100       0.00000000       0.00000000      -0.00000000      -0.00000000
Ti       3.26699000       6.50059000       4.45393000       2.61040000      -0.00100000      -0.44577700      -0.12629800      -0.46566700      -0.00000000      -0.00000000      -0.00100000      -0.00100000
Ti       3.16654000       6.62910000       7.28661000       2.50900000      -0.01660000      -0.12091400      -0.43917900       1.88510800      -0.00100000      -0.00200000      -0.01700000      -0.01900000
Ti       3.29469000       6.54742000      10.35037000       2.38660000      -0.01520000      -0.26742300      -1.79388800      -0.82919100      -0.00100000      -0.00200000      -0.01500000      -0.01700000
Ti       3.42854000       6.23422000      13.28608000       2.42100000      -0.00040000      -1.49935700       0.90547400       0.90597600       0.00000000       0.00000000      -0.00000000      -0.00000000
Ti       3.60353000       6.16694000      16.30461000       2.56280000       0.00000000      -2.78222100       0.71067900      -1.05250000       0.00000000       0.00000000      -0.00000000      -0.00000000
Ti       3.07385000       9.49954000      17.67443000       2.46790000      -0.00010000       1.08047500      -0.75317900       0.08959300      -0.00000000       0.00000000      -0.00000000      -0.00000000
Ti       2.92207000       9.67930000       2.96844000       2.62580000      -0.00040000      -1.17226000      -1.39905000      -1.63373600       0.00000000       0.00000000      -0.00000000      -0.00000000
Ti       2.81658000       9.94863000       5.75002000       2.51830000      -0.00430000       0.65590900      -0.61657100       1.46530900      -0.00000000      -0.00000000      -0.00400000      -0.00400000
Ti       3.03512000       9.85086000       8.68506000       2.49370000      -0.00690000       0.51301500       0.47270600       0.56361300      -0.00000000      -0.00000000      -0.00700000      -0.00700000
Ti       3.30177000       9.60096000      11.66892000       2.46410000      -0.00210000      -0.03824600       1.82134900       1.65854400       0.00000000       0.00000000      -0.00200000      -0.00200000
Ti       3.23119000       9.49450000      14.69216000       2.49920000       0.00000000      -0.39775000      -0.44707100      -0.20636200      -0.00000000       0.00000000      -0.00000000      -0.00000000
Ti      12.81217000      12.66354000       0.01896000       2.55910000       0.00010000      -0.72996400      -0.80358800      -1.10390300       0.00000000       0.00000000       0.00000000       0.00000000
Ti      12.80028000      12.69044000       3.03737000       2.48230000      -0.00010000      -0.12046500      -0.90444300      -1.39933300      -0.00000000       0.00000000      -0.00000000      -0.00000000
Ti      12.88032000       0.00827000       5.88613000       2.52950000      -0.00010000      -0.27996100       0.62374200       0.70827400       0.00000000      -0.00000000      -0.00000000      -0.00000000
Ti       0.03963000       0.01795000       8.81206000       2.51360000      -0.00020000       0.28201000       0.45915300       0.31026800      -0.00000000      -0.00000000      -0.00000000      -0.00000000
Ti       0.01640000      12.85875000      11.82657000       2.55500000      -0.00020000      -0.62742700       0.16318100       0.31806300       0.00000000      -0.00000000      -0.00000000      -0.00000000
Ti      12.92412000      12.69733000      14.74768000       2.41470000      -0.00010000      -0.91185300      -0.87750800       1.11748100      -0.00000000      -0.00000000      -0.00000000      -0.00000000
Ti       0.17613000       2.80113000       1.46572000       2.57540000       0.00000000      -1.80242100       1.57514200      -0.19702500       0.00000000       0.00000000      -0.00000000       0.00000000
Ti       0.10179000       3.08946000       4.39444000       2.55220000      -0.00020000      -2.51727700       0.63848400       0.26828900      -0.00000000       0.00000000      -0.00000000      -0.00000000
Ti       0.14803000       3.32091000       7.38903000       2.54310000      -0.00030000      -1.24642500      -1.66218400       0.23304800       0.00000000       0.00000000      -0.00000000      -0.00000000
Ti       0.29071000       3.10826000      10.34496000       2.63240000       0.00000000      -1.68227700       0.28022900      -0.44380600       0.00000000       0.00000000       0.00000000       0.00000000
Ti       0.41662000       3.00973000      13.29777000       2.56950000      -0.00010000      -1.15520600       0.42878100      -0.37261400       0.00000000      -0.00000000      -0.00000000      -0.00000000
Ti       0.11903000       2.92310000      16.25782000       2.48160000       0.00000000       0.00119400      -0.62854200      -1.34666200      -0.00000000       0.00000000      -0.00000000      -0.00000000
Ti       0.27156000       6.11455000       0.09096000       2.51260000       0.00000000      -0.10478400       1.12010700      -0.32779100      -0.00000000      -0.00000000      -0.00000000      -0.00000000
Ti       0.15792000       6.29887000       3.00690000       2.59230000      -0.00010000       0.12236300      -0.16592800      -1.12550900      -0.00000000       0.00000000      -0.00000000      -0.00000000
Ti      12.88077000       6.40821000       5.85981000       2.47220000      -0.00020000       1.57498200       0.42143400       0.49357900      -0.00000000      -0.00000000      -0.00000000      -0.00000000
Ti       0.04104000       6.51926000       8.85882000       2.41350000      -0.00030000      -0.68722500       0.37597500       0.57958200      -0.00000000      -0.00000000      -0.00000000      -0.00000000
Ti       0.06063000       6.42231000      11.83933000       2.40970000      -0.00010000       0.58205400      -0.43333800      -0.33072000       0.00000000       0.00000000      -0.00000000      -0.00000000
Ti       0.24012000       6.19423000      14.83221000       2.47860000       0.00000000      -0.05689000       1.47142700       0.41348400      -0.00000000      -0.00000000      -0.00000000      -0.00000000
Ti      12.85273000       9.48285000       1.58786000       2.46820000       0.00000000      -0.18952500      -0.05783400      -0.70650100      -0.00000000      -0.00000000      -0.00000000      -0.00000000
Ti      12.43460000       9.53744000       4.53385000       2.69040000       0.00000000       0.93044300       0.83136000      -1.75545400      -0.00000000       0.00000000      -0.00000000      -0.00000000
Ti      12.76463000       9.77047000       7.30201000       2.55250000       0.00010000      -0.70229600       0.07192500       2.87854600      -0.00000000       0.00000000      -0.00000000       0.00000000
Ti       0.00437000       9.70641000      10.42350000       2.45840000       0.00000000      -0.05806900       0.68819700      -2.41951800      -0.00000000      -0.00000000      -0.00000000      -0.00000000
Ti       0.05444000       9.47428000      13.31425000       2.54760000       0.00000000      -0.06335600       1.83546200       0.56801500       0.00000000       0.00000000      -0.00000000      -0.00000000
Ti      12.90026000       9.39312000      16.28123000       2.56260000       0.00000000      -0.18476600      -0.23833400       0.64362600       0.00000000       0.00000000       0.00000000       0.00000000
O       11.90871000       3.24426000       0.00298000       0.00000000       0.00000000      -0.96560800      -0.41426400       0.44933800      -0.00000000      -0.00000000       0.00000000      -0.00000000
O       11.81904000       3.24373000       2.85574000       0.00000000       0.00000000      -0.21293600      -0.17758200       0.59472100      -0.00000000       0.00000000       0.00000000       0.00000000
O       11.78312000       3.35595000       5.86771000       0.00000000       0.00000000       0.44991900       0.03687600       0.42093400      -0.00000000       0.00000000       0.00000000       0.00000000
O       11.85081000       3.27775000       8.83552000       0.00000000       0.00000000       0.13420400       0.38129800       0.19747100       0.00000000       0.00000000       0.00000000       0.00000000
O       12.09221000       3.22911000      11.81900000       0.00000000       0.00000000      -2.00692300       0.15822900       0.66551100       0.00000000       0.00000000       0.00000000       0.00000000
O       12.01015000       3.06424000      14.60881000       0.00000000       0.00000000      -1.00167500       0.95556100       1.34379800       0.00000000       0.00000000       0.00000000       0.00000000
O       11.54716000       9.39253000       0.12932000       0.00000000       0.00000000       0.51351500       0.18160900      -0.53736800       0.00000000       0.00000000       0.00000000       0.00000000
O       11.42626000       9.76334000       2.99729000       0.00000000       0.00000000      -0.17509300      -0.51771900      -1.12343100       0.00000000       0.00000000       0.00000000       0.00000000
O       11.37648000       9.94223000       6.01822000       0.00000000       0.00000000      -0.65608600      -0.48815500       0.18719100      -0.00000000       0.00000000       0.00000000       0.00000000
O       11.52891000       9.84515000       8.92666000       0.00000000       0.00000000       0.92930200      -0.11191500      -0.58645300      -0.00000000       0.00000000       0.00000000       0.00000000
O       11.66669000       9.85043000      11.76419000       0.00000000       0.00000000       0.74478900      -1.10155000       0.44856600       0.00000000      -0.00000000       0.00000000      -0.00000000
O       11.65524000       9.36257000      14.81446000       0.00000000       0.00000000       0.00578500       0.46912200      -0.45856600      -0.00000000      -0.00000000       0.00000000      -0.00000000
O       10.83650000      12.89117000       0.10775000       0.00000000       0.00000000      -0.68778000      -0.66665400      -0.52287200      -0.00000000       0.00000000       0.00000000       0.00000000
O       10.85101000      12.70714000       2.93687000       0.00000000       0.00000000       0.00909700       0.55687000       0.34397000       0.00000000       0.00000000       0.00000000       0.00000000
O       10.92203000       0.17953000       5.83702000       0.00000000       0.00000000      -0.19773300      -0.18025500       0.71667200      -0.00000000       0.00000000       0.00000000       0.00000000
O       10.98062000       0.27238000       8.71091000       0.00000000       0.00000000       0.38195800      -0.58528200       0.66679400      -0.00000000       0.00000000       0.00000000       0.00000000
O       10.93148000      12.93092000      11.81169000       0.00000000       0.00000000       0.86475400       0.47291000      -0.18209300      -0.00000000       0.00000000       0.00000000       0.00000000
O       10.84913000      12.61176000      14.90884000       0.00000000       0.00000000       1.18996800       1.22984200      -0.95167900      -0.00000000       0.00000000       0.00000000       0.00000000
O       11.25715000       6.38565000      17.70445000       0.00000000       0.00000000      -0.30384700       0.01250100       1.67703800      -0.00000000       0.00000000       0.00000000       0.00000000
O       11.10101000       6.41000000       3.16922000       0.00000000       0.00000000       0.54596800       0.23909800      -0.69113500      -0.00000000       0.00000000       0.00000000       0.00000000
O       11.01455000       6.55315000       6.02001000       0.00000000       0.00000000      -0.29975400       0.43131500      -1.06877100       0.00000000       0.00000000       0.00000000       0.00000000
O       11.01972000       6.78927000       8.97294000       0.00000000       0.00000000      -0.26226500      -0.39931100      -0.62316500      -0.00000000       0.00000000       0.00000000       0.00000000
O       11.07699000       6.76856000      11.83005000       0.00000000       0.00000000      -0.10354500      -0.83466600      -0.29265000       0.00000000       0.00000000       0.00000000       0.00000000
O       11.18554000       6.57659000      14.89784000       0.00000000       0.00000000       0.66246100      -0.65547100      -1.42695300       0.00000000       0.00000000       0.00000000       0.00000000
O        9.78805000       1.85651000       1.61016000       0.00000000       0.00000000       0.29397600       0.92531500      -0.39679000      -0.00000000       0.00000000       0.00000000       0.00000000
O        9.89307000       2.21087000       4.55594000       0.00000000       0.00000000      -0.08469400      -2.55846400      -1.19336300       0.00000000       0.00000000       0.00000000       0.00000000
O        9.70583000       2.30361000       7.32575000       0.00000000       0.00000000       0.61092900       0.00822200       0.84821400      -0.00000000       0.00000000       0.00000000       0.00000000
O       10.02530000       2.19455000      10.23715000       0.00000000       0.00000000      -0.20705800       1.11549000       0.78457900      -0.00000000       0.00000000       0.00000000       0.00000000
O        9.95116000       2.06084000      13.20742000       0.00000000       0.00000000       0.06453600      -0.09024800      -0.32058000      -0.00000000       0.00000000       0.00000000       0.00000000
O        9.95705000       1.86605000      16.11214000       0.00000000       0.00000000      -0.09457200       0.82063900       0.76500900      -0.00000000      -0.00000000       0.00000000      -0.00000000
O        9.81334000       4.47180000       1.48854000       0.00000000       0.00000000       0.30678300       0.50256600      -0.33305300       0.00000000       0.00000000       0.00000000       0.00000000
O        9.71640000       4.66383000       4.41442000       0.00000000       0.00000000      -0.03933200       0.40855100      -0.51261700       0.00000000       0.00000000       0.00000000       0.00000000
O        9.87073000       4.85316000       7.37733000       0.00000000       0.00000000      -0.14836700      -0.45805800       0.01829100       0.00000000       0.00000000       0.00000000       0.00000000
O        9.78543000       4.74803000      10.34383000       0.00000000       0.00000000       0.68352700       0.47547200       0.16879500       0.00000000      -0.00000000       0.00000000      -0.00000000
O       10.19534000       4.57325000      13.28673000       0.00000000       0.00000000      -0.21960500       0.69107400      -0.03345100       0.00000000       0.00000000       0.00000000       0.00000000
O        9.96234000       4.42525000      16.24847000       0.00000000       0.00000000       0.22986200      -0.69770600       0.17740400      -0.00000000       0.00000000       0.00000000       0.00000000
O        9.57401000       8.40609000       1.64281000       0.00000000       0.00000000       0.06016600      -0.55154500      -0.86631700       0.00000000       0.00000000       0.00000000       0.00000000
O        9.63494000       8.55632000       4.50978000       0.00000000       0.00000000       0.04107400       0.14376700       0.18142900      -0.00000000      -0.00000000       0.00000000      -0.00000000
O        9.53214000       8.70364000       7.30407000       0.00000000       0.00000000       0.40106300       0.13893800       1.19005200       0.00000000       0.00000000       0.00000000       0.00000000
O        9.62749000       8.73955000      10.23155000       0.00000000       0.00000000      -0.25356400       0.27122600       1.22707400      -0.00000000       0.00000000       0.00000000       0.00000000
O        9.68225000       8.49847000      13.21067000       0.00000000       0.00000000       0.06136900       0.56604100       0.37891700      -0.00000000      -0.00000000       0.00000000      -0.00000000
O        9.69888000       8.33726000      16.30567000       0.00000000       0.00000000      -0.72188600       0.60787500      -0.50769300      -0.00000000       0.00000000       0.00000000       0.00000000
O        9.50616000      10.87962000       1.44964000       0.00000000       0.00000000       0.04892000       0.95824600       0.40544600      -0.00000000       0.00000000       0.00000000       0.00000000
O        9.53533000      11.11148000       4.45634000       0.00000000       0.00000000      -0.41691900       0.24270200      -0.27801100       0.00000000       0.00000000       0.00000000       0.00000000
O        9.46862000      11.39976000       7.40594000       0.00000000       0.00000000      -0.00074600      -1.23072000      -0.59904600      -0.00000000       0.00000000       0.00000000       0.00000000
O        9.55511000      11.36245000      10.34480000       0.00000000       0.00000000       0.23510200      -1.59421800      -0.67450100       0.00000000       0.00000000       0.00000000       0.00000000
O        9.84851000      11.05844000      13.36111000       0.00000000       0.00000000      -0.58439100      -0.28984600      -0.07609500      -0.00000000      -0.00000000       0.00000000      -0.00000000
O        9.53480000      10.94675000      16.34781000       0.00000000       0.00000000       0.00834200      -1.01610800      -0.06996200      -0.00000000      -0.00000000       0.00000000      -0.00000000
O        8.27977000       0.25501000       0.04837000       0.00000000       0.00000000       0.12026000      -0.94948500      -0.21605400      -0.00000000       0.00000000       0.00000000       0.00000000
O        8.29539000       0.09864000       3.11536000       0.00000000       0.00000000      -0.63904000       0.31401100      -1.16466900       0.00000000       0.00000000       0.00000000       0.00000000
O        8.25496000       0.36641000       5.90425000       0.00000000       0.00000000       0.96361400      -0.05942200      -0.46114900      -0.00000000       0.00000000       0.00000000       0.00000000
O        8.43189000       0.51107000       8.91129000       0.00000000       0.00000000      -1.06330900      -0.26648800      -0.49089800      -0.00000000       0.00000000       0.00000000       0.00000000
O        8.37456000       0.25510000      11.75926000       0.00000000       0.00000000       0.12205100       0.48920500       0.62463500      -0.00000000       0.00000000       0.00000000       0.00000000
O        8.35937000       0.08089000      14.61834000       0.00000000       0.00000000      -0.89775200       0.34948900       1.12341700       0.00000000      -0.00000000       0.00000000      -0.00000000
O        8.71454000       6.31313000       0.03802000       0.00000000       0.00000000      -0.47833400       0.87872800       0.99443700      -0.00000000       0.00000000       0.00000000       0.00000000
O        8.49264000       6.55936000       2.98537000       0.00000000       0.00000000       1.57201800      -0.10399100      -0.27014100      -0.00000000       0.00000000       0.00000000       0.00000000
O        8.40774000       6.59154000       5.92768000       0.00000000       0.00000000       0.28178200       0.29297200       0.79807900       0.00000000       0.00000000       0.00000000       0.00000000
O        8.38665000       6.88607000       8.90362000       0.00000000       0.00000000       1.06747000      -0.58612300      -0.65538200      -0.00000000       0.00000000       0.00000000       0.00000000
O        8.43636000       6.59106000      11.95826000       0.00000000       0.00000000       1.49255600       0.13988100      -0.84516100       0.00000000       0.00000000       0.00000000       0.00000000
O        8.67647000       6.32660000      14.79530000       0.00000000       0.00000000      -1.09364600       0.42205200       0.12983400       0.00000000       0.00000000       0.00000000       0.00000000
O        7.87987000       3.03924000       0.06034000       0.00000000       0.00000000       0.48451400       0.16325600      -0.11627000       0.00000000       0.00000000       0.00000000       0.00000000
O        7.80789000       3.10277000       3.08109000       0.00000000       0.00000000      -0.09319100       0.13623700      -0.56322500      -0.00000000       0.00000000       0.00000000       0.00000000
O        7.78697000       3.13446000       5.87824000       0.00000000       0.00000000       0.07901400       0.77913000      -0.11085900       0.00000000       0.00000000       0.00000000       0.00000000
O        7.91978000       3.53532000       8.77921000       0.00000000       0.00000000       0.07665300      -0.75155900       0.80264600       0.00000000       0.00000000       0.00000000       0.00000000
O        8.06468000       3.36394000      11.86326000       0.00000000       0.00000000      -0.78047500      -0.39486100      -0.24296100       0.00000000       0.00000000       0.00000000       0.00000000
O        8.01468000       3.24882000      14.77380000       0.00000000       0.00000000      -0.15625500      -0.44651200       0.26362500       0.00000000       0.00000000       0.00000000       0.00000000
O        7.58769000       9.91739000       0.22221000       0.00000000       0.00000000       0.32563200      -0.85718200      -1.11484000       0.00000000       0.00000000       0.00000000       0.00000000
O        7.49742000       9.79218000       3.09570000       0.00000000       0.00000000      -0.89963100       0.13839300      -0.83637800       0.00000000       0.00000000       0.00000000       0.00000000
O        7.44366000       9.79363000       5.82084000       0.00000000       0.00000000       0.01022500       0.06770300       0.39004100      -0.00000000       0.00000000       0.00000000       0.00000000
O        7.69849000       9.84954000       8.72653000       0.00000000       0.00000000      -1.71402500       0.12550200       0.45731200       0.00000000       0.00000000       0.00000000       0.00000000
O        7.74653000      10.08121000      11.85693000       0.00000000       0.00000000      -0.10392900      -0.78669600      -1.07575200      -0.00000000      -0.00000000       0.00000000      -0.00000000
O        7.72423000       9.72657000      14.69111000       0.00000000       0.00000000       0.92023900       0.63199400       1.88207300       0.00000000       0.00000000       0.00000000       0.00000000
O        6.24766000       1.24062000       1.57133000       0.00000000       0.00000000       0.16337800       1.01631000      -0.45361500      -0.00000000       0.00000000       0.00000000       0.00000000
O        5.97689000       1.41236000       4.47423000       0.00000000       0.00000000       0.84382900      -0.87730900      -0.79281400      -0.00000000       0.00000000       0.00000000       0.00000000
O        6.19777000       1.47875000       7.43172000       0.00000000       0.00000000       0.12266400       0.00961500      -0.74242200      -0.00000000      -0.00000000       0.00000000      -0.00000000
O        6.13941000       1.55217000      10.34087000       0.00000000       0.00000000       1.54960900      -0.03662000       0.39203800       0.00000000       0.00000000       0.00000000       0.00000000
O        6.09057000       1.34494000      13.36158000       0.00000000       0.00000000       1.14023000       1.20594500       0.10803400      -0.00000000       0.00000000       0.00000000       0.00000000
O        6.19342000       1.27623000      16.33778000       0.00000000       0.00000000       0.48155300       0.80578600      -0.98146000      -0.00000000      -0.00000000       0.00000000      -0.00000000
O        6.78594000       5.14735000       1.45931000       0.00000000       0.00000000      -0.29693400       1.07731500       0.72484400       0.00000000      -0.00000000       0.00000000      -0.00000000
O        6.59566000       5.25681000       4.39803000       0.00000000       0.00000000       0.09528000       0.00433800       0.09965900       0.00000000       0.00000000       0.00000000       0.00000000
O        6.56091000       5.34940000       7.28251000       0.00000000       0.00000000       0.49504300       0.57145000       1.09419300       0.00000000       0.00000000       0.00000000       0.00000000
O        6.70245000       5.47654000      10.20190000       0.00000000       0.00000000      -0.18674100      -0.60062100       1.58555700       0.00000000       0.00000000       0.00000000       0.00000000
O        6.74263000       5.28055000      13.30042000       0.00000000       0.00000000      -0.30499000       0.78895800      -0.02299300       0.00000000       0.00000000       0.00000000       0.00000000
O        6.81087000       5.15456000      16.30988000       0.00000000       0.00000000      -0.17759400       1.94116200      -0.62056700      -0.00000000       0.00000000       0.00000000       0.00000000
O        6.46441000       7.75356000       1.43384000       0.00000000       0.00000000       0.00775600       0.13719100       0.24513500       0.00000000       0.00000000       0.00000000       0.00000000
O        6.52958000       7.86776000       4.41490000       0.00000000       0.00000000      -1.02172600      -0.50133700      -0.14586400       0.00000000       0.00000000       0.00000000       0.00000000
O        6.11614000       7.96481000       7.28025000       0.00000000       0.00000000       0.81636300      -0.59425900       0.27934700      -0.00000000       0.00000000       0.00000000       0.00000000
O        6.38677000       7.98846000      10.22271000       0.00000000       0.00000000      -0.15133800       0.47916000       0.55327100       0.00000000       0.00000000       0.00000000       0.00000000
O        6.50499000       7.92907000      13.30405000       0.00000000       0.00000000       0.00293500      -1.40435600       0.06295600       0.00000000       0.00000000       0.00000000       0.00000000
O        6.63619000       7.83707000      16.27216000       0.00000000       0.00000000       0.12691700      -1.13840400       0.19062800       0.00000000       0.00000000       0.00000000       0.00000000
O        6.37148000      11.76782000       1.59883000       0.00000000       0.00000000       0.05752500      -1.52228000      -0.13679300      -0.00000000       0.00000000       0.00000000      -0.00000000
O        6.47470000      11.76246000       4.51723000       0.00000000       0.00000000      -0.61223500       0.43485800      -0.52049100       0.00000000       0.00000000       0.00000000       0.00000000
O        6.48064000      11.86112000       7.33687000       0.00000000       0.00000000       0.13424200       1.26582200       0.31553100       0.00000000       0.00000000       0.00000000       0.00000000
O        6.42235000      11.96370000      10.28460000       0.00000000       0.00000000       0.70907100      -0.60290500       0.04390900       0.00000000       0.00000000       0.00000000       0.00000000
O        6.40068000      11.84118000      13.25342000       0.00000000       0.00000000       0.31573700      -0.10473400       0.35989900      -0.00000000       0.00000000       0.00000000       0.00000000
O        6.46388000      11.82962000      16.27670000       0.00000000       0.00000000       0.51790800      -2.48585100      -0.24058300      -0.00000000       0.00000000       0.00000000       0.00000000
O        5.29970000       3.41248000       0.06658000       0.00000000       0.00000000       0.49956600      -0.71033400      -0.22555500       0.00000000       0.00000000       0.00000000       0.00000000
O        5.23555000       3.27909000       2.89702000       0.00000000       0.00000000      -1.46344900       0.53408400       0.79777200       0.00000000       0.00000000       0.00000000       0.00000000
O        5.30410000       3.61069000       5.88445000       0.00000000       0.00000000      -2.01711200      -0.55241100       0.61962700      -0.00000000       0.00000000       0.00000000       0.00000000
O        5.41990000       3.70002000       8.91059000       0.00000000       0.00000000      -0.77314100      -0.74067300      -0.11543700       0.00000000       0.01100000       0.00000000       0.01100000
O        5.48114000       3.56072000      11.89674000       0.00000000       0.00000000      -0.55433600      -0.42677000      -0.62774100       0.00000000       0.00100000       0.00000000       0.00100000
O        5.41868000       3.46748000      14.87963000       0.00000000       0.00000000      -0.34095600      -0.69488800      -1.18145900       0.00000000       0.00000000       0.00000000       0.00000000
O        5.09114000       9.64512000       0.01611000       0.00000000       0.00000000      -0.02790100       0.43513100      -0.13858900       0.00000000       0.00000000       0.00000000       0.00000000
O        4.86228000       9.60532000       2.97439000       0.00000000       0.00000000       0.80902100       0.68594600      -0.25714700       0.00000000       0.00000000       0.00000000       0.00000000
O        4.85540000      10.13320000       5.90932000       0.00000000       0.00000000      -0.08832300      -0.47668500      -0.44768100       0.00000000       0.00000000       0.00000000       0.00000000
O        5.02268000      10.18325000       8.76064000       0.00000000       0.00000000       0.09655800      -0.97695800       1.26573100       0.00000000       0.00000000       0.00000000       0.00000000
O        5.22886000       9.98079000      11.78601000       0.00000000       0.00000000      -0.73921400      -0.75897000      -0.58256100       0.00000000       0.00000000       0.00000000       0.00000000
O        5.14968000       9.67739000      14.85158000       0.00000000       0.00000000       0.83573000       0.85629700      -0.11875700      -0.00000000       0.00000000       0.00000000       0.00000000
O        4.40299000      12.48431000      17.71566000       0.00000000       0.00000000      -0.28954600       0.57494700       0.32430800       0.00000000       0.00000000       0.00000000       0.00000000
O        4.31844000      12.87092000       2.85975000       0.00000000       0.00000000       0.87918700      -0.72855200       1.48858400      -0.00000000       0.00000000       0.00000000       0.00000000
O        4.39796000      12.92207000       5.74213000       0.00000000       0.00000000      -0.09690100      -0.99854600      -0.25725500      -0.00000000       0.00100000       0.00000000       0.00100000
O        4.46091000      12.81520000       8.75292000       0.00000000       0.00000000       0.92018300       0.08988400       0.38338400       0.00000000       0.00100000       0.00000000       0.00100000
O        4.48044000      12.70007000      11.78878000       0.00000000       0.00000000      -0.32419800       0.33077700       0.06634700       0.00000000       0.00100000       0.00000000       0.00100000
O        4.37382000      12.69991000      14.75614000       0.00000000       0.00000000       0.88520200      -0.36303500       1.18062600      -0.00000000       0.00000000       0.00000000       0.00000000
O        4.69020000       6.09290000       0.02218000       0.00000000       0.00000000       1.78423300       1.10966500       1.57251400      -0.00000000       0.00000000       0.00000000       0.00000000
O        4.64795000       6.34520000       3.08492000       0.00000000       0.00000000      -0.64659300       0.46122900      -1.00039300      -0.00000000       0.00000000       0.00000000       0.00000000
O        4.49511000       6.48094000       5.89288000       0.00000000       0.00000000      -0.71742500       0.09272000      -0.10332100       0.00000000       0.00100000       0.00000000       0.00100000
O        4.50558000       6.42975000       8.74487000       0.00000000       0.00000000      -0.81829400       0.16681700       0.72967500      -0.00000000      -0.00100000       0.00000000      -0.00100000
O        4.69481000       6.51851000      11.84309000       0.00000000       0.00000000      -2.00022100      -0.46484000      -0.72685000       0.00000000       0.00100000       0.00000000       0.00100000
O        4.69275000       6.19271000      14.75698000       0.00000000       0.00000000       1.19597300       0.61640000      -0.23921100      -0.00000000       0.00000000       0.00000000       0.00000000
O        3.35445000       1.72429000       1.40432000       0.00000000       0.00000000       0.03700800       0.97568500       0.93557200       0.00000000       0.00000000       0.00000000       0.00000000
O        3.27617000       1.89503000       4.33178000       0.00000000       0.00000000       0.28115400       1.22566300       1.03330900       0.00000000       0.00100000       0.00000000       0.00100000
O        3.55913000       1.97316000       7.25907000       0.00000000       0.00000000      -0.29799400       1.23735500      -0.45682200       0.00100000       0.01200000       0.00000000       0.01300000
O        3.80120000       1.94107000      10.30118000       0.00000000       0.00000000      -1.59956800       0.08945700       0.50438300       0.00100000       0.00900000       0.00000000       0.01000000
O        3.48134000       1.72713000      13.27728000       0.00000000       0.00000000       0.29551200       1.42141600      -0.47345600      -0.00000000       0.00000000       0.00000000       0.00000000
O        3.61130000       1.72901000      16.28207000       0.00000000       0.00000000      -0.47581100      -0.69169100      -0.46900800       0.00000000       0.00000000       0.00000000       0.00000000
O        3.29087000       4.32776000       1.42247000       0.00000000       0.00000000      -0.69839200       0.51799600       0.71761000       0.00000000       0.00000000       0.00000000       0.00000000
O        3.21220000       4.50284000       4.28685000       0.00000000       0.00000000      -0.15378400      -0.58121000       0.53757300       0.00000000       0.00100000       0.00000000       0.00100000
O        3.12674000       4.64091000       7.17539000       0.00000000       0.00000000       0.06915200      -0.52394900       0.65544700       0.00100000       0.01300000       0.00000000       0.01400000
O        3.26083000       4.55177000      10.45037000       0.00000000       0.00000000       0.03539400       0.23505400      -0.08920400       0.00000000       0.01000000       0.00000000       0.01000000
O        3.47245000       4.28692000      13.34727000       0.00000000       0.00000000      -0.95049900       0.58819800      -0.06611100       0.00000000       0.00100000       0.00000000       0.00100000
O        3.35286000       4.22030000      16.28553000       0.00000000       0.00000000      -0.83522200       0.82574000      -1.21044300       0.00000000       0.00000000       0.00000000       0.00000000
O        3.08338000       8.33762000       1.53097000       0.00000000       0.00000000       0.57015400      -0.50347600      -0.35346300       0.00000000       0.00000000       0.00000000       0.00000000
O        3.06355000       8.47183000       4.52684000       0.00000000       0.00000000       0.32510100       0.41672600      -0.45885500       0.00000000       0.00000000       0.00000000       0.00000000
O        3.06979000       8.61078000       7.21126000       0.00000000       0.00000000       0.29781100      -0.43913100       0.10976400      -0.00000000       0.00100000       0.00000000       0.00100000
O        3.33747000       8.45266000      10.19671000       0.00000000       0.00000000       0.13741700       0.15552100      -0.74668500      -0.00000000       0.00100000       0.00000000       0.00100000
O        3.27603000       8.29551000      13.15836000       0.00000000       0.00000000       0.52962000      -0.18955800       0.59307600       0.00000000       0.00000000       0.00000000       0.00000000
O        3.35917000       8.19266000      16.15002000       0.00000000       0.00000000      -0.27498200       0.31522000       0.96858000       0.00000000       0.00000000       0.00000000       0.00000000
O        2.91879000      10.85840000       1.47513000       0.00000000       0.00000000       0.17911300      -0.18617900      -0.53736800       0.00000000       0.00000000       0.00000000       0.00000000
O        2.66899000      11.11127000       4.17707000       0.00000000       0.00000000       1.11985300      -0.58569500       1.87999000       0.00000000       0.00000000       0.00000000       0.00000000
O        2.80747000      11.18271000       7.25370000       0.00000000       0.00000000       0.26420600      -0.75931700      -0.05494300      -0.00000000       0.00100000       0.00000000       0.00100000
O        2.93390000      10.97102000      10.26183000       0.00000000       0.00000000       0.37380700       0.21656500       0.33206000      -0.00000000       0.00100000       0.00000000       0.00100000
O        2.99917000      10.85657000      13.32332000       0.00000000       0.00000000       0.59489400      -0.21444800      -0.74933000       0.00000000       0.00000000       0.00000000       0.00000000
O        2.99016000      10.75331000      16.17631000       0.00000000       0.00000000       0.42166100       0.38617200       0.46027300       0.00000000       0.00000000       0.00000000       0.00000000
O        1.83596000      12.95429000      17.66687000       0.00000000       0.00000000      -0.10386500      -0.50363800       0.14254200      -0.00000000       0.00000000       0.00000000       0.00000000
O        1.79508000       0.06962000       2.89654000       0.00000000       0.00000000      -0.63555300      -0.19691500      -0.13347000      -0.00000000       0.00000000       0.00000000       0.00000000
O        1.86899000       0.22087000       5.87549000       0.00000000       0.00000000      -0.15449200      -0.14762700      -0.08555400      -0.00000000       0.00000000       0.00000000       0.00000000
O        2.02584000       0.29702000       8.78901000       0.00000000       0.00000000      -0.56628800      -0.58547700       0.20247700      -0.00000000       0.00000000       0.00000000       0.00000000
O        1.93887000       0.03486000      11.76411000       0.00000000       0.00000000       0.50401600       0.03645800       0.29621000      -0.00000000       0.00000000       0.00000000       0.00000000
O        1.85113000       0.03945000      14.76391000       0.00000000       0.00000000       0.65580500      -0.96701300       0.39255000      -0.00000000      -0.00000000       0.00000000      -0.00000000
O        2.20310000       6.29971000       0.05309000       0.00000000       0.00000000       0.00103200      -0.16765700      -0.41915500      -0.00000000       0.00000000       0.00000000       0.00000000
O        2.10342000       6.49861000       2.98156000       0.00000000       0.00000000      -0.38268100      -0.36894200      -0.43044400      -0.00000000       0.00000000       0.00000000       0.00000000
O        1.92942000       6.47837000       5.87468000       0.00000000       0.00000000      -0.36120300       0.35432600      -0.47829800       0.00000000       0.00100000       0.00000000       0.00100000
O        1.93228000       6.68020000       8.85579000       0.00000000       0.00000000       1.12154200      -0.32886700       0.15226300      -0.00000000       0.00000000       0.00000000       0.00000000
O        2.03698000       6.40526000      11.84611000       0.00000000       0.00000000       1.13589200       0.63659400      -0.47402800       0.00000000       0.00100000       0.00000000       0.00100000
O        2.14893000       6.26119000      14.79598000       0.00000000       0.00000000       1.09049200       0.29240900       0.04188900      -0.00000000       0.00000000       0.00000000       0.00000000
O        1.39637000       2.78022000      17.66368000       0.00000000       0.00000000      -0.09634400       0.23778500       0.36597700       0.00000000       0.00000000       0.00000000       0.00000000
O        1.29718000       2.91963000       2.94694000       0.00000000       0.00000000       1.84785500      -0.06496400      -0.02605700       0.00000000       0.00000000       0.00000000       0.00000000
O        1.32674000       3.20150000       5.88654000       0.00000000       0.00000000       0.44783200      -0.83763800      -0.33781800       0.00000000       0.00100000       0.00000000       0.00100000
O        1.37542000       3.01795000       8.88505000       0.00000000       0.00000000       2.03661600       0.54293000      -1.57562700       0.00000000       0.00700000       0.00000000       0.00700000
O        1.53269000       2.85449000      11.75379000       0.00000000       0.00000000       1.19342800       0.04682500       0.37549700       0.00000000       0.00000000       0.00000000       0.00000000
O        1.45530000       2.57035000      14.75757000       0.00000000       0.00000000       1.41342300       1.49557500       1.36015300       0.00000000       0.00000000       0.00000000       0.00000000
O        1.22118000       9.55295000      17.70548000       0.00000000       0.00000000      -1.30738900      -0.15850000       1.02230400       0.00000000       0.00000000       0.00000000       0.00000000
O        0.96914000       9.64691000       3.11661000       0.00000000       0.00000000       0.22846800      -0.28850700      -0.54944000      -0.00000000       0.00000000       0.00000000       0.00000000
O        0.91061000       9.63042000       5.78508000       0.00000000       0.00000000       1.37580400       0.20169100       0.59056000       0.00000000       0.00000000       0.00000000       0.00000000
O        1.13144000       9.79558000       8.67322000       0.00000000       0.00000000      -0.48635900      -0.55633100       1.44051900       0.00000000       0.00000000       0.00000000       0.00000000
O        1.34191000       9.44294000      11.82015000       0.00000000       0.00000000      -1.17043900       0.45082800      -0.09825300       0.00000000       0.00000000       0.00000000       0.00000000
O        1.20383000       9.64523000      14.84659000       0.00000000       0.00000000       0.36170800      -1.02424900      -0.99486800      -0.00000000       0.00000000       0.00000000       0.00000000
O       12.79707000       0.95672000       1.47453000       0.00000000       0.00000000       0.09808100       0.67290000       0.42950400      -0.00000000      -0.00000000       0.00000000      -0.00000000
O       12.78962000       1.16894000       4.24822000       0.00000000       0.00000000       0.15201900      -0.08379100       1.16992700       0.00000000       0.00000000       0.00000000       0.00000000
O        0.00513000       1.31414000       7.34601000       0.00000000       0.00000000      -0.19206400       0.15470700      -0.31070200       0.00000000       0.00000000       0.00000000       0.00000000
O        0.00641000       1.12826000      10.31564000       0.00000000       0.00000000      -0.38279800       1.66195200       0.78396700       0.00000000       0.00000000       0.00000000       0.00000000
O       12.85259000       1.04382000      13.40252000       0.00000000       0.00000000      -0.05450900       0.49376700      -1.05020800       0.00000000       0.00000000       0.00000000       0.00000000
O       12.73679000       0.97601000      16.38418000       0.00000000       0.00000000       0.28412900       0.94054100      -1.78997600       0.00000000      -0.00000000       0.00000000      -0.00000000
O        0.34064000       4.98453000       1.63378000       0.00000000       0.00000000      -0.37121000      -0.63661400      -0.68659000      -0.00000000       0.00000000       0.00000000       0.00000000
O        0.29766000       5.04689000       4.46649000       0.00000000       0.00000000      -0.81261800       0.92727000      -0.06268500       0.00000000       0.00000000       0.00000000       0.00000000
O        0.16034000       5.21479000       7.42995000       0.00000000       0.00000000      -0.41050100       0.79253300      -0.23146200       0.00000000       0.00000000       0.00000000       0.00000000
O        0.19543000       5.10909000      10.36605000       0.00000000       0.00000000      -0.50606000       1.34334700      -0.42160300       0.00000000       0.00000000       0.00000000       0.00000000
O        0.55465000       5.13407000      13.27932000       0.00000000       0.00000000      -1.86128900      -1.73438300      -0.22566600      -0.00000000       0.00000000       0.00000000       0.00000000
O        0.27279000       4.93042000      16.26579000       0.00000000       0.00000000      -0.09672700      -0.66484800      -0.24223800      -0.00000000       0.00000000       0.00000000       0.00000000
O        0.18941000       7.53178000       1.47994000       0.00000000       0.00000000      -0.71036900       0.18472500       0.38289600       0.00000000       0.00000000       0.00000000       0.00000000
O        0.01124000       7.69181000       4.30827000       0.00000000       0.00000000      -0.54944500      -0.92184100       1.56261900       0.00000000       0.00000000       0.00000000       0.00000000
O       12.91108000       7.78516000       7.26989000       0.00000000       0.00000000      -0.08876200      -0.63812700       0.59550500       0.00000000       0.00000000       0.00000000       0.00000000
O        0.01569000       7.77158000      10.38802000       0.00000000       0.00000000       0.26998400      -0.80596000      -0.23832600       0.00000000       0.00000000       0.00000000       0.00000000
O        0.02180000       7.65157000      13.39620000       0.00000000       0.00000000       0.42561400      -2.08430100      -0.29999200       0.00000000       0.00000000       0.00000000       0.00000000
O        0.25789000       7.49972000      16.39949000       0.00000000       0.00000000      -0.04037400      -0.56802600      -0.92431100      -0.00000000       0.00000000       0.00000000       0.00000000
O       12.80383000      11.40819000       1.41068000       0.00000000       0.00000000       0.45588500       0.33818100       1.23320500      -0.00000000      -0.00000000       0.00000000      -0.00000000
O       12.85066000      11.53759000       4.60214000       0.00000000       0.00000000      -0.06898300       1.04690900      -0.96970300       0.00000000       0.00000000       0.00000000       0.00000000
O       12.87000000      11.77558000       7.38684000       0.00000000       0.00000000       0.12783600      -1.22201900      -0.72868800       0.00000000       0.00000000       0.00000000       0.00000000
O       12.95650000      11.67697000      10.38156000       0.00000000       0.00000000       0.25881200      -0.96830000      -1.45761900       0.00000000       0.00000000       0.00000000       0.00000000
O       12.87925000      11.43576000      13.18971000       0.00000000       0.00000000       0.51130800       1.31450800       1.05973400       0.00000000       0.00000000       0.00000000       0.00000000
O       12.90439000      11.30705000      16.20587000       0.00000000       0.00000000      -0.34280000       2.42594000       0.63652400       0.00000000       0.00000000       0.00000000       0.00000000
288
Lattice="12.9730319977 0.0 0.0 0.0 12.9730319977 0.0 0.0 0.0 17.7244205475" Properties=species:S:1:pos:R:3:decomposed_charges:R:1:decomposed_magmoms:R:1:forces:R:3:magmoms:R:4 energy=-2177.74360703 pbc="T T T"
Ti       9.47602000      12.80619000       1.52703000       2.45480000       0.00000000       0.90457700       1.37488100      -0.96998700      -0.00000000      -0.00000000      -0.00000000      -0.00000000
Ti       9.62129000       0.16646000       4.43163000       2.46600000       0.00000000      -0.05699300      -0.20578300       0.95623400       0.00000000      -0.00000000      -0.00000000      -0.00000000
Ti       9.65366000       0.44687000       7.34885000       2.52480000       0.00000000      -0.73411600      -1.88540400      -0.26543800      -0.00000000      -0.00000000      -0.00000000      -0.00000000
Ti       9.79185000       0.33568000      10.26904000       2.54700000       0.00000000      -0.39796400      -0.74971800       0.94124500       0.00000000      -0.00000000      -0.00000000      -0.00000000
Ti       9.73670000       0.17070000      13.29420000       2.47320000       0.00000000      -0.23372100      -1.68975000      -0.49993700       0.00000000       0.00000000       0.00000000       0.00000000
Ti       9.52778000      12.90707000      16.23200000       2.43680000       0.00000000       0.53061700       0.21470100       0.64326300      -0.00000000      -0.00000000      -0.00000000      -0.00000000
Ti       9.92188000       3.09303000       0.03732000       2.27480000       0.00000000      -1.34908100      -0.29548400      -0.03408200       0.00000000      -0.00000000      -0.00000000      -0.00000000
Ti       9.77334000       3.28107000       2.98671000       2.50780000       0.00000000       0.31096900      -0.19462000      -0.92856000       0.00000000      -0.00000000      -0.00000000      -0.00000000
Ti       9.79573000       3.51232000       5.87788000       2.64660000       0.00000000      -0.37308400       0.81909600       0.48254200       0.00000000       0.00000000      -0.00000000      -0.00000000
Ti       9.94217000       3.58933000       8.78311000       2.52570000       0.00010000      -0.75948800       0.09114100       0.97462400       0.00000000       0.00000000       0.00000000       0.00000000
Ti      10.10446000       3.43605000      11.73967000       2.44250000       0.00010000      -0.58140000      -0.33060600      -0.46495900       0.00000000      -0.00000000      -0.00000000      -0.00000000
Ti      10.03842000       3.23462000      14.69265000       2.48820000       0.00000000      -0.49179700      -0.09547400       1.61629500       0.00000000      -0.00000000      -0.00000000      -0.00000000
Ti      10.05871000       6.53626000       1.62496000       2.37920000       0.00000000      -1.41459100      -1.75442700      -1.70064700       0.00000000      -0.00000000      -0.00000000      -0.00000000
Ti       9.66987000       6.62219000       4.53918000       2.58380000       0.00000000      -0.70974500      -0.33113700      -0.36904800       0.00000000       0.00000000      -0.00000000      -0.00000000
Ti       9.72563000       6.85030000       7.44836000       2.49450000      -0.00010000      -0.83625500      -1.16677000       1.01913600      -0.00000000      -0.00000000      -0.00000000      -0.00000000
Ti       9.66707000       6.86693000      10.41639000       2.43510000      -0.00010000       0.24016200      -1.17574200      -0.39790700       0.00000000      -0.00000000      -0.00000000      -0.00000000
Ti       9.87561000       6.52073000      13.34918000       2.46790000       0.00010000       0.34029900       0.99791100      -0.23934300       0.00000000       0.00000000      -0.00000000      -0.00000000
Ti       9.95383000       6.36090000      16.30317000       2.62500000       0.00000000      -0.10932000       0.01067500       0.29442900      -0.00000000      -0.00000000      -0.00000000      -0.00000000
Ti       9.62253000       9.55375000       0.02924000       2.50520000       0.00000000      -0.04314500       0.72622200      -0.49455300      -0.00000000       0.00000000       0.00000000       0.00000000
Ti       9.34838000       9.74673000       2.98878000       2.58240000       0.00000000       1.70381900       0.63160600       1.07049600      -0.00000000      -0.00000000      -0.00000000      -0.00000000
Ti       9.30997000       9.94837000       5.93837000       2.56280000       0.00000000       0.48429800       1.29905900      -0.63465000      -0.00000000       0.00000000      -0.00000000      -0.00000000
Ti       9.59439000      10.13393000       8.83834000       2.50920000      -0.00020000       1.22905200       0.12099000      -0.15561500      -0.00000000      -0.00000000      -0.00000000      -0.00000000
Ti       9.78339000      10.00979000      11.77510000       2.45040000       0.00000000      -1.78791600      -0.28513400       0.84082200      -0.00000000      -0.00000000      -0.00000000      -0.00000000
Ti       9.78286000       9.68425000      14.76912000       2.39140000       0.00000000      -0.90516000       0.21641500      -0.37433900       0.00000000       0.00000000       0.00000000       0.00000000
Ti       6.29020000       0.03649000       0.04749000       2.54900000       0.00000000       0.55421400       0.38686400       0.78686200      -0.00000000      -0.00000000      -0.00000000      -0.00000000
Ti       6.28382000       0.02568000       3.03788000       2.55420000       0.00000000      -0.13226300       0.43867500      -0.57256900      -0.00000000      -0.00000000      -0.00000000      -0.00000000
Ti       6.27086000       0.17944000       5.88178000       2.57470000      -0.00010000       2.47293700      -0.35952400       1.83394900      -0.00000000      -0.00000000      -0.00000000      -0.00000000
Ti       6.41037000       0.32999000       8.91867000       2.50060000      -0.00040000       0.67036700      -1.22822100      -1.40634300      -0.00000000      -0.00000000      -0.00000000      -0.00000000
Ti       6.38863000       0.25613000      11.81994000       2.46080000       0.00000000       0.70202500      -1.00431100       0.17499900      -0.00000000       0.00000000      -0.00000000      -0.00000000
Ti       6.28975000       0.00169000      14.77797000       2.52800000       0.00000000       0.88955000       0.94685600       0.00242300       0.00000000       0.00000000      -0.00000000      -0.00000000
Ti       6.51647000       3.24589000       1.57947000       2.56340000       0.00000000       1.53580500      -0.89067200      -2.46889400       0.00000000       0.00000000      -0.00000000      -0.00000000
Ti       6.41296000       3.28501000       4.42972000       2.63310000      -0.00030000       1.51005300       0.55037000       1.02531200      -0.00000000      -0.00000000      -0.00000000      -0.00000000
Ti       6.57936000       3.41690000       7.37981000       2.54490000       0.00030000       0.14698800      -0.23629100      -0.16970200       0.00000000       0.00000000       0.00000000       0.00100000
Ti       6.70585000       3.51533000      10.37267000       2.39960000       0.00000000       0.19447300       0.27773900      -0.00416000       0.00000000       0.00000000      -0.00000000       0.00000000
Ti       6.74061000       3.31926000      13.37537000       2.43940000       0.00000000      -0.06372300       0.51153700      -0.95645100       0.00000000       0.00000000      -0.00000000      -0.00000000
Ti       6.62833000       3.27238000      16.31020000       2.51160000      -0.00020000       0.59170000      -1.24754400       1.43529900       0.00000000       0.00000000      -0.00000000      -0.00000000
Ti       6.80379000       6.44881000       0.02921000       2.47340000       0.00020000      -0.51651900      -0.01184800      -0.65009200       0.00000000       0.00000000       0.00000000       0.00000000
Ti       6.58094000       6.49596000       2.94028000       2.53240000       0.00000000       0.27875100       0.54493600       0.40652500       0.00000000       0.00000000       0.00000000       0.00000000
Ti       6.35778000       6.52546000       5.86335000       2.59140000       0.00000000       1.92197100       1.89593500      -0.66871700       0.00000000       0.00000000      -0.00000000      -0.00000000
Ti       6.43458000       6.66286000       8.76064000       2.54150000      -0.00070000       0.02487000       0.89981300      -0.99935700      -0.00000000      -0.00000000      -0.00100000      -0.00100000
Ti       6.51500000       6.75132000      11.71391000       2.51430000      -0.00030000       1.82476700      -0.35702800       0.98332800       0.00000000       0.00000000      -0.00000000      -0.00000000
Ti       6.71327000       6.51647000      14.74983000       2.34780000       0.00000000      -0.31525700       0.07954700      -0.24009300       0.00000000       0.00000000       0.00000000       0.00000000
Ti       6.21651000       9.73680000       1.58081000       2.47420000       0.00000000       0.65180300       0.13417300      -1.72540300       0.00000000      -0.00000000      -0.00000000      -0.00000000
Ti       6.02659000       9.85767000       4.43212000       2.56000000       0.00000000       1.53245300      -1.04558900       1.79814300      -0.00000000       0.00000000      -0.00000000      -0.00000000
Ti       6.22918000       9.97448000       7.36511000       2.56500000      -0.00020000       0.28830000      -0.59787800      -1.24982500       0.00000000       0.00000000      -0.00000000      -0.00000000
Ti       6.47512000      10.00434000      10.22841000       2.34070000      -0.00010000      -0.11602900       0.26168300       1.98424800       0.00000000       0.00000000      -0.00000000      -0.00000000
Ti       6.46673000       9.89716000      13.34486000       2.53650000       0.00010000      -0.35815900      -0.22036100      -1.52883500       0.00000000       0.00000000      -0.00000000       0.00000000
Ti       6.50632000       9.80555000      16.31853000       2.35090000      -0.00010000      -0.38454600      -0.47611600      -0.00360300      -0.00000000       0.00000000       0.00000000       0.00000000
Ti       3.07473000      12.77440000       1.45485000       2.61630000      -0.00030000      -0.31312700       0.21307900      -0.13242900       0.00000000       0.00000000      -0.00000000      -0.00000000
Ti       3.03609000       0.03744000       4.39075000       2.69190000      -0.00150000      -0.28642200      -0.34290300      -1.45668900      -0.00000000      -0.00000000      -0.00100000      -0.00100000
Ti       3.32996000       0.11558000       7.26367000       2.64620000      -0.01440000      -2.23764700      -0.18774600       2.09619500      -0.00100000      -0.00100000      -0.01500000      -0.01700000
Ti       3.28165000       0.03574000      10.28385000       2.43480000      -0.01100000      -0.78889500      -0.12760200       0.09953100      -0.00000000      -0.00100000      -0.01100000      -0.01200000
Ti       3.21274000      12.79562000      13.30303000       2.55520000      -0.00060000      -1.38411100      -0.76161700      -1.27130600       0.00000000       0.00000000      -0.00000000      -0.00000000
Ti       3.12790000      12.63161000      16.30255000       2.53970000      -0.00010000      -0.31162300       1.41046100      -1.40690900       0.00000000      -0.00000000      -0.00000000      -0.00000000
Ti       3.32373000       2.96686000      17.72090000       2.62610000      -0.00070000       1.51290000       0.30478100      -0.48420600      -0.00000000       0.00000000      -0.00100000      -0.00100000
Ti       3.23472000       3.14130000       2.93054000       2.55840000      -0.00480000       1.02433400       0.25272100      -1.22972400      -0.00000000      -0.00000000      -0.00500000      -0.00500000
Ti       3.22264000       3.25918000       5.84365000       2.48770000      -0.04970000       1.70848100       0.96519100       0.82451000      -0.00100000       0.00000000      -0.05000000      -0.05000000
Ti       3.44186000       3.34814000       8.76166000       2.38830000      -0.87570000       0.09700500       0.10651000       0.94242600      -0.00900000      -0.02100000      -0.87300000      -0.90400000
Ti       3.48458000       3.14452000      11.78665000       2.44650000      -0.01830000       1.08589400      -0.25736300      -1.48976100      -0.00100000       0.00100000      -0.01800000      -0.01800000
Ti       3.53269000       2.93664000      14.75913000       2.47370000      -0.00210000      -0.51527900      -0.10899200       1.33631900      -0.00000000      -0.00000000      -0.00200000      -0.00200000
Ti       3.40369000       6.32206000       1.54863000       2.43460000      -0.00020000       0.06943400       0.18168400      -0.88204500       0.00000000       0.00000000      -0.00000000      -0.00000000
Ti       3.26475000       6.50177000       4.45130000       2.61780000      -0.00080000      -0.29620300      -0.12691100      -0.20590700      -0.00000000      -0.00000000      -0.00100000      -0.00100000
Ti       3.16486000       6.63244000       7.28475000       2.50930000      -0.01730000      -0.02661900      -0.42111200       1.83492600      -0.00100000      -0.00200000      -0.01700000      -0.02000000
Ti       3.29923000       6.55106000      10.34627000       2.37210000      -0.01630000      -0.31398700      -1.91775400      -0.78522400      -0.00100000      -0.00200000      -0.01600000      -0.01900000
Ti       3.43191000       6.22952000      13.28765000       2.42860000      -0.00040000      -1.57313100       0.96859700       0.89458100       0.00000000       0.00000000      -0.00000000      -0.00000000
Ti       3.60210000       6.16349000      16.30553000       2.55960000      -0.00020000      -2.68614000       0.72057200      -0.96432500       0.00000000      -0.00000000      -0.00000000      -0.00000000
Ti       3.07740000       9.49635000      17.67646000       2.47690000      -0.00010000       1.07735300      -0.65471000       0.00178900      -0.00000000       0.00000000      -0.00000000      -0.00000000
Ti       2.91837000       9.67880000       2.97290000       2.61040000      -0.00040000      -1.12715900      -1.25876800      -1.64435900       0.00000000       0.00000000      -0.00000000      -0.00000000
Ti       2.81352000       9.95425000       5.75259000       2.52620000      -0.00440000       0.76112000      -0.61576500       1.43018900      -0.00000000      -0.00000000      -0.00500000      -0.00500000
Ti       3.03344000       9.85340000       8.68654000       2.50300000      -0.00720000       0.56098000       0.53034300       0.51015800      -0.00000000      -0.00000000      -0.00700000      -0.00700000
Ti       3.30545000       9.59837000      11.66551000       2.46010000      -0.00210000      -0.10987200       1.94149700       1.79847000       0.00000000       0.00000000      -0.00200000      -0.00200000
Ti       3.23204000       9.49219000      14.69327000       2.49830000      -0.00010000      -0.38084300      -0.34044300      -0.28033600      -0.00000000       0.00000000      -0.00000000      -0.00000000
Ti      12.81505000      12.66467000       0.01905000       2.56320000       0.00000000      -0.73622400      -0.96575900      -1.07976600       0.00000000      -0.00000000      -0.00000000      -0.00000000
Ti      12.79757000      12.69217000       3.03193000       2.48230000      -0.00010000      -0.04083000      -0.96766900      -1.19620000      -0.00000000       0.00000000      -0.00000000      -0.00000000
Ti      12.87747000       0.01021000       5.88910000       2.52130000      -0.00010000      -0.16321400       0.58857400       0.58418200       0.00000000      -0.00000000      -0.00000000      -0.00000000
Ti       0.04148000       0.01975000       8.81594000       2.52240000      -0.00020000       0.28157700       0.40131000       0.18128700      -0.00000000      -0.00000000      -0.00000000      -0.00000000
Ti       0.02019000      12.86005000      11.82476000       2.56060000      -0.00020000      -0.65129800       0.14572500       0.48904200      -0.00000000      -0.00000000      -0.00000000      -0.00000000
Ti      12.92468000      12.69865000      14.75173000       2.42380000       0.00000000      -0.88675000      -0.94233800       1.01029600       0.00000000      -0.00000000      -0.00000000      -0.00000000
Ti       0.17808000       2.80058000       1.46409000       2.56580000       0.00000000      -1.85622500       1.52005900      -0.09933800       0.00000000       0.00000000      -0.00000000      -0.00000000
Ti       0.09861000       3.09269000       4.39473000       2.54430000      -0.00030000      -2.49344700       0.52051900       0.17847100       0.00000000       0.00000000      -0.00000000      -0.00000000
Ti       0.14690000       3.32721000       7.39423000       2.55120000      -0.00020000      -1.16496000      -1.80964600      -0.00027000       0.00000000       0.00000000      -0.00000000      -0.00000000
Ti       0.29280000       3.11097000      10.33757000       2.63460000       0.00000000      -1.85348500       0.24666600      -0.07314400       0.00000000       0.00000000      -0.00000000       0.00000000
Ti       0.42590000       3.01242000      13.30097000       2.56830000      -0.00010000      -1.21286900       0.35317300      -0.56406100       0.00000000       0.00000000      -0.00000000      -0.00000000
Ti       0.11320000       2.92318000      16.25460000       2.47170000       0.00010000       0.08793600      -0.72547700      -1.14469700      -0.00000000       0.00000000       0.00000000       0.00000000
Ti       0.27504000       6.11063000       0.09138000       2.52050000      -0.00010000      -0.13886700       1.20815100      -0.22575900      -0.00000000       0.00000000      -0.00000000      -0.00000000
Ti       0.16156000       6.29882000       3.00584000       2.59460000       0.00000000      -0.03612200      -0.02845000      -1.05693100       0.00000000       0.00000000      -0.00000000      -0.00000000
Ti      12.88023000       6.41087000       5.86017000       2.46550000      -0.00030000       1.46353900       0.50513100       0.36357900      -0.00000000      -0.00000000      -0.00000000      -0.00000000
Ti       0.04273000       6.52236000       8.85638000       2.40540000      -0.00040000      -0.79171500       0.40215800       0.63099800      -0.00000000      -0.00000000      -0.00000000      -0.00000000
Ti       0.06234000       6.42198000      11.83771000       2.40750000      -0.00010000       0.49486900      -0.41345600      -0.29261800       0.00000000       0.00000000      -0.00000000      -0.00000000
Ti       0.24263000       6.19497000      14.83654000       2.46320000      -0.00020000      -0.03229800       1.45223700       0.28829000      -0.00000000      -0.00000000      -0.00000000      -0.00000000
Ti      12.85421000       9.48143000       1.58623000       2.46170000      -0.00010000      -0.19668600      -0.04869400      -0.63167800      -0.00000000      -0.00000000      -0.00000000      -0.00000000
Ti      12.43101000       9.53780000       4.53403000       2.70400000       0.00000000       0.98448400       0.87457000      -1.71202800      -0.00000000       0.00000000      -0.00000000      -0.00000000
Ti      12.76963000       9.77329000       7.30312000       2.55400000       0.00000000      -0.87044200       0.09579600       2.69162500      -0.00000000       0.00000000      -0.00000000      -0.00000000
Ti       0.01257000       9.70826000      10.41516000       2.46160000       0.00000000      -0.16683900       0.64710100      -2.20116900      -0.00000000      -0.00000000      -0.00000000      -0.00000000
Ti       0.05678000       9.47413000      13.31757000       2.54660000       0.00000000      -0.11020500       2.05914800       0.41536500       0.00000000       0.00000000      -0.00000000      -0.00000000
Ti      12.90367000       9.39094000      16.28452000       2.56260000       0.00000000      -0.16878300      -0.11981400       0.61948600       0.00000000       0.00000000      -0.00000000      -0.00000000
O       11.90514000       3.24180000       0.00730000       0.00000000       0.00000000      -0.83372200      -0.44497200       0.38748700       0.00000000      -0.00000000       0.00000000      -0.00000000
O       11.81008000       3.24412000       2.85645000       0.00000000       0.00000000      -0.00112400      -0.20193900       0.56598800      -0.00000000       0.00000000       0.00000000       0.00000000
O       11.78048000       3.34967000       5.86995000       0.00000000       0.00000000       0.44452800       0.06872900       0.38784200      -0.00000000       0.00000000       0.00000000       0.00000000
O       11.85315000       3.27738000       8.82340000       0.00000000       0.00000000       0.03065700       0.38243900       0.38953300       0.00000000       0.00000000       0.00000000       0.00000000
O       12.09768000       3.22152000      11.82295000       0.00000000       0.00000000      -2.02666500       0.16777600       0.57547500       0.00000000       0.00000000       0.00000000       0.00000000
O       12.02119000       3.06031000      14.61363000       0.00000000       0.00000000      -1.16882500       0.96623900       1.27130400       0.00000000       0.00000000       0.00000000       0.00000000
O       11.54437000       9.39353000       0.12108000       0.00000000       0.00000000       0.63330200       0.15383500      -0.45709700      -0.00000000       0.00000000       0.00000000       0.00000000
O       11.43103000       9.75163000       2.99775000       0.00000000       0.00000000      -0.28616800      -0.48366400      -1.22905300       0.00000000       0.00000000       0.00000000       0.00000000
O       11.37596000       9.94648000       6.01411000       0.00000000       0.00000000      -0.66725800      -0.51520700       0.34988700      -0.00000000       0.00000000       0.00000000       0.00000000
O       11.53279000       9.83494000       8.92970000       0.00000000       0.00000000       0.79266500      -0.04710300      -0.62021800       0.00000000       0.00000000       0.00000000       0.00000000
O       11.66559000       9.84102000      11.75120000       0.00000000       0.00000000       0.76097000      -1.03703700       0.52384300      -0.00000000      -0.00000000       0.00000000      -0.00000000
O       11.65756000       9.35837000      14.81760000       0.00000000       0.00000000      -0.00822200       0.46878600      -0.46203600      -0.00000000      -0.00000000       0.00000000      -0.00000000
O       10.83445000      12.88656000       0.10398000       0.00000000       0.00000000      -0.65875300      -0.61960500      -0.44223300      -0.00000000       0.00000000       0.00000000       0.00000000
O       10.84913000      12.69782000       2.93558000       0.00000000       0.00000000       0.00274100       0.62732600       0.35303900      -0.00000000       0.00000000       0.00000000       0.00000000
O       10.92026000       0.18152000       5.84591000       0.00000000       0.00000000      -0.20968700      -0.16550200       0.62038200      -0.00000000       0.00000000       0.00000000       0.00000000
O       10.98707000       0.27935000       8.70593000       0.00000000       0.00000000       0.22541500      -0.60802500       0.72676100      -0.00000000       0.00000000       0.00000000       0.00000000
O       10.93601000      12.93488000      11.81142000       0.00000000       0.00000000       0.81047500       0.48275800      -0.29190400      -0.00000000       0.00000000       0.00000000       0.00000000
O       10.84666000      12.61123000      14.90691000       0.00000000       0.00000000       1.23999000       1.22086300      -0.94512700       0.00000000       0.00000000       0.00000000       0.00000000
O       11.25805000       6.37894000      17.70559000       0.00000000       0.00000000      -0.32542600       0.04268000       1.69047500      -0.00000000      -0.00000000       0.00000000      -0.00000000
O       11.09937000       6.40581000       3.17460000       0.00000000       0.00000000       0.58195200       0.26777700      -0.87662100       0.00000000       0.00000000       0.00000000       0.00000000
O       11.01172000       6.56253000       6.01976000       0.00000000       0.00000000      -0.17761900       0.40277100      -1.06348400       0.00000000       0.00000000       0.00000000       0.00000000
O       11.02075000       6.79283000       8.96467000       0.00000000       0.00000000      -0.23906000      -0.38228300      -0.53912300      -0.00000000       0.00000000       0.00000000       0.00000000
O       11.07650000       6.76671000      11.82168000       0.00000000       0.00000000      -0.09978700      -0.81264200      -0.15877200       0.00000000       0.00000000       0.00000000       0.00000000
O       11.18618000       6.56747000      14.90020000       0.00000000       0.00000000       0.69667400      -0.59185800      -1.44325000       0.00000000       0.00000000       0.00000000       0.00000000
O        9.79132000       1.86306000       1.61402000       0.00000000       0.00000000       0.26591200       0.76616600      -0.45690500       0.00000000       0.00000000       0.00000000       0.00000000
O        9.88261000       2.21202000       4.55583000       0.00000000       0.00000000      -0.04600600      -2.58236500      -1.16806100       0.00000000       0.00000000       0.00000000       0.00000000
O        9.70354000       2.31058000       7.32298000       0.00000000       0.00000000       0.57230900      -0.14771300       0.93041500      -0.00000000       0.00000000       0.00000000       0.00000000
O       10.02051000       2.19670000      10.23364000       0.00000000       0.00000000      -0.15129600       1.10028000       0.77021900      -0.00000000       0.00000000       0.00000000       0.00000000
O        9.94180000       2.06236000      13.20748000       0.00000000       0.00000000       0.13754200      -0.08034900      -0.34550900       0.00000000       0.00000000       0.00000000       0.00000000
O        9.96547000       1.86106000      16.10787000       0.00000000       0.00000000      -0.09822100       0.91331600       0.80873200       0.00000000       0.00000000       0.00000000       0.00000000
O        9.81497000       4.46979000       1.48515000       0.00000000       0.00000000       0.26048900       0.57950700      -0.34859700       0.00000000       0.00000000       0.00000000       0.00000000
O        9.71724000       4.66970000       4.41054000       0.00000000       0.00000000      -0.05315000       0.24831600      -0.44053800      -0.00000000       0.00000000       0.00000000       0.00000000
O        9.87164000       4.85973000       7.38120000       0.00000000       0.00000000      -0.15144900      -0.61520400       0.03206300       0.00000000       0.00000000       0.00000000       0.00000000
O        9.79240000       4.75223000      10.34516000       0.00000000       0.00000000       0.69454800       0.37380600       0.12168900      -0.00000000      -0.00000000       0.00000000      -0.00000000
O       10.19468000       4.57617000      13.28574000       0.00000000       0.00000000      -0.19759200       0.58431600      -0.04622800      -0.00000000       0.00000000       0.00000000       0.00000000
O        9.97464000       4.42710000      16.24904000       0.00000000       0.00000000       0.16229300      -0.75975100       0.16933000      -0.00000000       0.00000000       0.00000000       0.00000000
O        9.58284000       8.40589000       1.63773000       0.00000000       0.00000000       0.05034500      -0.61772800      -0.78818100       0.00000000       0.00000000       0.00000000       0.00000000
O        9.63986000       8.54960000       4.50977000       0.00000000       0.00000000      -0.01079100       0.41462800       0.17861200      -0.00000000       0.00000000       0.00000000       0.00000000
O        9.52791000       8.70597000       7.30389000       0.00000000       0.00000000       0.38398500       0.21312000       1.22690200       0.00000000       0.00000000       0.00000000       0.00000000
O        9.61499000       8.73909000      10.23401000       0.00000000       0.00000000      -0.24881900       0.38713500       1.14532700       0.00000000       0.00000000       0.00000000       0.00000000
O        9.68030000       8.50122000      13.21310000       0.00000000       0.00000000       0.06524600       0.53202500       0.34478600       0.00000000       0.00000000       0.00000000       0.00000000
O        9.69664000       8.32622000      16.30417000       0.00000000       0.00000000      -0.72051800       0.80507000      -0.49466400       0.00000000      -0.00000000       0.00000000      -0.00000000
O        9.51043000      10.87871000       1.45254000       0.00000000       0.00000000       0.05703600       0.95053300       0.38437900      -0.00000000       0.00000000       0.00000000       0.00000000
O        9.53414000      11.11519000       4.45032000       0.00000000       0.00000000      -0.44302700       0.10053200      -0.18484400       0.00000000       0.00000000       0.00000000       0.00000000
O        9.47081000      11.39972000       7.40192000       0.00000000       0.00000000      -0.02326100      -1.21108000      -0.51182000      -0.00000000       0.00000000       0.00000000       0.00000000
O        9.55541000      11.36721000      10.34589000       0.00000000       0.00000000       0.23706700      -1.63870200      -0.74845800      -0.00000000       0.00000000       0.00000000       0.00000000
O        9.85035000      11.06064000      13.35825000       0.00000000       0.00000000      -0.56726900      -0.36963700      -0.06061900      -0.00000000      -0.00000000       0.00000000      -0.00000000
O        9.53480000      10.95120000      16.34726000       0.00000000       0.00000000       0.01259700      -1.20462500      -0.05109600      -0.00000000      -0.00000000       0.00000000      -0.00000000
O        8.27914000       0.25148000       0.04626000       0.00000000       0.00000000       0.09387900      -0.92673400      -0.13997100      -0.00000000       0.00000000       0.00000000       0.00000000
O        8.29737000       0.10340000       3.11066000       0.00000000       0.00000000      -0.61878200       0.30923900      -1.06013900       0.00000000       0.00000000       0.00000000       0.00000000
O        8.25712000       0.36283000       5.90432000       0.00000000       0.00000000       0.99280500      -0.02927600      -0.44274700      -0.00000000       0.00000000       0.00000000       0.00000000
O        8.43073000       0.52109000       8.91833000       0.00000000       0.00000000      -1.06240800      -0.31416900      -0.61370500      -0.00000000       0.00000000       0.00000000       0.00000000
O        8.37602000       0.25267000      11.76430000       0.00000000       0.00000000       0.07546500       0.51036200       0.52537800       0.00000000       0.00000000       0.00000000       0.00000000
O        8.36367000       0.08192000      14.61134000       0.00000000       0.00000000      -0.98195500       0.34293800       1.19556800       0.00000000       0.00000000       0.00000000       0.00000000
O        8.70406000       6.32292000       0.03851000       0.00000000       0.00000000      -0.23817900       0.79188500       0.97414900      -0.00000000       0.00000000       0.00000000       0.00000000
O        8.48737000       6.56877000       2.98596000       0.00000000       0.00000000       1.52538200      -0.15522000      -0.32764500      -0.00000000      -0.00000000       0.00000000      -0.00000000
O        8.40546000       6.59312000       5.92678000       0.00000000       0.00000000       0.30101600       0.27177200       0.79741500       0.00000000       0.00000000       0.00000000       0.00000000
O        8.38509000       6.87876000       8.90391000       0.00000000       0.00000000       1.11299000      -0.53994900      -0.67004700      -0.00000000       0.00000000       0.00000000       0.00000000
O        8.44378000       6.59721000      11.95215000       0.00000000       0.00000000       1.22649100       0.10966100      -0.75488500       0.00000000       0.00000000       0.00000000       0.00000000
O        8.67334000       6.31599000      14.79174000       0.00000000       0.00000000      -0.98691300       0.46234900       0.18989900       0.00000000       0.00000000       0.00000000       0.00000000
O        7.88264000       3.03787000       0.05440000       0.00000000       0.00000000       0.46054600       0.16792900      -0.06300900       0.00000000       0.00000000       0.00000000       0.00000000
O        7.80721000       3.10132000       3.08034000       0.00000000       0.00000000      -0.14301300       0.19144400      -0.54871400      -0.00000000       0.00000000       0.00000000       0.00000000
O        7.78703000       3.14220000       5.87728000       0.00000000       0.00000000       0.04876000       0.76220700      -0.10607700       0.00000000       0.00000000       0.00000000       0.00000000
O        7.91791000       3.54194000       8.78790000       0.00000000       0.00000000       0.11766600      -0.80902000       0.70865100       0.00000000       0.00000000       0.00000000       0.00000000
O        8.06960000       3.37696000      11.85963000       0.00000000       0.00000000      -0.89260700      -0.44491700      -0.18463200       0.00000000       0.00000000       0.00000000       0.00000000
O        8.02244000       3.23409000      14.77419000       0.00000000       0.00000000      -0.33059300      -0.38337300       0.24128900       0.00000000       0.00000000       0.00000000       0.00000000
O        7.59549000       9.91322000       0.23229000       0.00000000       0.00000000       0.17805200      -0.84333400      -1.21253200       0.00000000       0.00000000       0.00000000       0.00000000
O        7.49910000       9.78903000       3.08568000       0.00000000       0.00000000      -1.03608000       0.14138400      -0.70456100       0.00000000       0.00000000       0.00000000       0.00000000
O        7.43445000       9.78997000       5.81741000       0.00000000       0.00000000       0.23543900       0.12286800       0.43828900      -0.00000000       0.00000000       0.00000000       0.00000000
O        7.68705000       9.85222000       8.72443000       0.00000000       0.00000000      -1.40333400       0.15778000       0.46968700      -0.00000000       0.00000000       0.00000000       0.00000000
O        7.73731000      10.09122000      11.85725000       0.00000000       0.00000000       0.02769500      -0.83510100      -1.10429400       0.00000000       0.00000000       0.00000000       0.00000000
O        7.72659000       9.73741000      14.69658000       0.00000000       0.00000000       0.85312800       0.58894100       1.76074900      -0.00000000      -0.00000000       0.00000000      -0.00000000
O        6.24450000       1.24392000       1.58231000       0.00000000       0.00000000       0.18584000       0.97019200      -0.64151500      -0.00000000       0.00000000       0.00000000       0.00000000
O        5.96881000       1.42155000       4.47462000       0.00000000       0.00000000       0.89604400      -1.04228200      -0.69665300      -0.00000000       0.00000000       0.00000000       0.00000000
O        6.19234000       1.47746000       7.41516000       0.00000000       0.00000000       0.15455100       0.00117700      -0.42178700      -0.00000000       0.00000000       0.00000000       0.00000000
O        6.14786000       1.55516000      10.34360000       0.00000000       0.00000000       1.45710400      -0.09760400       0.35847600       0.00000000       0.00000000       0.00000000       0.00000000
O        6.08738000       1.34540000      13.36715000       0.00000000       0.00000000       1.14350200       1.23630400      -0.03020500      -0.00000000      -0.00000000       0.00000000      -0.00000000
O        6.19956000       1.27374000      16.34612000       0.00000000       0.00000000       0.45087900       0.84212100      -1.08433600      -0.00000000       0.00000000       0.00000000       0.00000000
O        6.78374000       5.14702000       1.45791000       0.00000000       0.00000000      -0.27595000       1.04093300       0.79312000       0.00000000       0.00000000       0.00000000       0.00000000
O        6.58553000       5.26996000       4.40505000       0.00000000       0.00000000       0.12769900      -0.29104500      -0.02156800       0.00000000       0.00000000       0.00000000       0.00000000
O        6.55966000       5.34801000       7.28957000       0.00000000       0.00000000       0.50157600       0.59428200       1.00842200       0.00000000       0.00000000       0.00000000       0.00000000
O        6.70034000       5.47329000      10.19579000       0.00000000       0.00000000      -0.18671500      -0.54265500       1.77527800       0.00000000       0.00000000       0.00000000       0.00000000
O        6.73927000       5.28423000      13.30213000       0.00000000       0.00000000      -0.28347300       0.69405900      -0.07772200       0.00000000       0.00000000       0.00000000       0.00000000
O        6.81686000       5.14350000      16.30517000       0.00000000       0.00000000      -0.18676500       2.15307000      -0.55148200       0.00000000       0.00000000       0.00000000       0.00000000
O        6.46586000       7.75178000       1.42969000       0.00000000       0.00000000      -0.02474800       0.13176900       0.29242400       0.00000000      -0.00000000       0.00000000      -0.00000000
O        6.52518000       7.86710000       4.42090000       0.00000000       0.00000000      -1.02053200      -0.47372800      -0.25381200       0.00000000       0.00000000       0.00000000       0.00000000
O        6.12191000       7.97079000       7.28089000       0.00000000       0.00000000       0.76674100      -0.66709600       0.29707800      -0.00000000       0.00000000       0.00000000       0.00000000
O        6.39237000       7.98368000      10.22176000       0.00000000       0.00000000      -0.19806600       0.61789200       0.60727600       0.00000000       0.00000000       0.00000000       0.00000000
O        6.50463000       7.93235000      13.30606000       0.00000000       0.00000000       0.03226000      -1.48665600       0.02186100       0.00000000       0.00000000       0.00000000       0.00000000
O        6.64043000       7.84072000      16.27095000       0.00000000       0.00000000       0.11488000      -1.27874800       0.19537900      -0.00000000      -0.00000000       0.00000000      -0.00000000
O        6.36702000      11.76773000       1.59820000       0.00000000       0.00000000       0.07926900      -1.52490200      -0.09445200      -0.00000000       0.00000000       0.00000000       0.00000000
O        6.47384000      11.76549000       4.52257000       0.00000000       0.00000000      -0.60497500       0.38759500      -0.61599600       0.00000000       0.00000000       0.00000000       0.00000000
O        6.47848000      11.86491000       7.33617000       0.00000000       0.00000000       0.16591300       1.23577600       0.39278000       0.00000000       0.00000000       0.00000000       0.00000000
O        6.42482000      11.96239000      10.28311000       0.00000000       0.00000000       0.69506700      -0.47740100       0.04540700       0.00000000       0.00000000       0.00000000       0.00000000
O        6.40287000      11.84373000      13.25192000       0.00000000       0.00000000       0.28101100      -0.12773700       0.31084900       0.00000000       0.00000000       0.00000000       0.00000000
O        6.45373000      11.82542000      16.27359000       0.00000000       0.00000000       0.55679400      -2.41155700      -0.20904000      -0.00000000       0.00000000       0.00000000      -0.00000000
O        5.30032000       3.40503000       0.06985000       0.00000000       0.00000000       0.45357100      -0.65504600      -0.25073400       0.00000000       0.00000000       0.00000000       0.00000000
O        5.23673000       3.27289000       2.89885000       0.00000000       0.00000000      -1.51463800       0.63336300       0.69660900       0.00000000       0.00000000       0.00000000       0.00000000
O        5.30365000       3.61908000       5.89575000       0.00000000       0.00000000      -1.92840100      -0.61043300       0.43288800      -0.00000000       0.00000000       0.00000000       0.00000000
O        5.41419000       3.69852000       8.91743000       0.00000000       0.00000000      -0.65756900      -0.79075000      -0.24549400       0.00000000       0.01100000       0.00000000       0.01100000
O        5.47758000       3.55862000      11.89870000       0.00000000       0.00000000      -0.46430300      -0.43950600      -0.57412800       0.00000000       0.00100000       0.00000000       0.00100000
O        5.40908000       3.47193000      14.87938000       0.00000000       0.00000000      -0.08539700      -0.71487300      -1.19459900       0.00000000       0.00000000       0.00000000       0.00000000
O        5.08910000       9.64526000       0.01826000       0.00000000       0.00000000       0.05550600       0.42298200      -0.15415700      -0.00000000       0.00000000       0.00000000       0.00000000
O        4.86141000       9.59152000       2.97609000       0.00000000       0.00000000       0.76895000       0.71204900      -0.31066800      -0.00000000      -0.00000000       0.00000000      -0.00000000
O        4.84861000      10.13499000       5.90781000       0.00000000       0.00000000       0.02327700      -0.47734900      -0.46427900       0.00000000       0.00000000       0.00000000       0.00000000
O        5.02139000      10.19063000       8.76019000       0.00000000       0.00000000       0.01461300      -0.98039200       1.33668300       0.00000000       0.00000000       0.00000000       0.00000000
O        5.22985000       9.98690000      11.78447000       0.00000000       0.00000000      -0.79764800      -0.80524700      -0.60446200       0.00000000       0.00000000       0.00000000       0.00000000
O        5.15173000       9.67188000      14.85112000       0.00000000       0.00000000       0.82470400       0.85883500      -0.09315900      -0.00000000      -0.00000000       0.00000000      -0.00000000
O        4.40231000      12.47392000      17.71361000       0.00000000       0.00000000      -0.21077500       0.61677500       0.39773000      -0.00000000       0.00000000       0.00000000       0.00000000
O        4.31640000      12.86452000       2.86098000       0.00000000       0.00000000       0.93639800      -0.69832900       1.45387900      -0.00000000       0.00000000       0.00000000       0.00000000
O        4.39808000      12.91489000       5.74429000       0.00000000       0.00000000      -0.11649000      -0.94339400      -0.18278800      -0.00000000       0.00100000       0.00000000       0.00100000
O        4.46743000      12.81500000       8.75785000       0.00000000       0.00000000       0.83359200       0.11518200       0.30444700       0.00000000       0.00100000       0.00000000       0.00100000
O        4.47370000      12.69333000      11.78808000       0.00000000       0.00000000      -0.11640400       0.40748600       0.00623700       0.00000000       0.00100000       0.00000000       0.00100000
O        4.36951000      12.69228000      14.75807000       0.00000000       0.00000000       0.99172800      -0.29306200       1.13932100      -0.00000000       0.00000000       0.00000000       0.00000000
O        4.69236000       6.08309000       0.02479000       0.00000000       0.00000000       1.68226600       1.12996600       1.51303100      -0.00000000       0.00000000       0.00000000       0.00000000
O        4.64605000       6.34622000       3.07898000       0.00000000       0.00000000      -0.69356700       0.43694400      -0.95554100      -0.00000000       0.00000000       0.00000000       0.00000000
O        4.49022000       6.48264000       5.89494000       0.00000000       0.00000000      -0.60433300       0.10268800      -0.14090100      -0.00000000       0.00100000       0.00000000       0.00100000
O        4.51747000       6.42818000       8.74463000       0.00000000       0.00000000      -1.09733500       0.19190000       0.74411400      -0.00000000      -0.00100000       0.00000000      -0.00100000
O        4.69495000       6.51639000      11.84682000       0.00000000       0.00000000      -2.03048300      -0.46142100      -0.81756200       0.00000000       0.00100000       0.00000000       0.00100000
O        4.68821000       6.18862000      14.75812000       0.00000000       0.00000000       1.31939400       0.64729600      -0.22332100      -0.00000000       0.00000000       0.00000000       0.00000000
O        3.34989000       1.71483000       1.39604000       0.00000000       0.00000000       0.10770100       1.10555500       1.02116400       0.00000000       0.00000000       0.00000000       0.00000000
O        3.28182000       1.89038000       4.33440000       0.00000000       0.00000000       0.28667200       1.49040200       0.95527600       0.00000000       0.00100000       0.00000000       0.00100000
O        3.54975000       1.97980000       7.25865000       0.00000000       0.00000000      -0.27921400       1.03886900      -0.41159200       0.00100000       0.01300000       0.00000000       0.01400000
O        3.79740000       1.94098000      10.29490000       0.00000000       0.00000000      -1.54223300       0.08797200       0.55864900       0.00100000       0.00900000       0.00000000       0.00900000
O        3.48413000       1.72879000      13.28017000       0.00000000       0.00000000       0.29640500       1.43612700      -0.53833000      -0.00000000       0.00000000       0.00000000       0.00000000
O        3.62023000       1.72682000      16.28459000       0.00000000       0.00000000      -0.50990700      -0.62747100      -0.46334300       0.00000000       0.00000000       0.00000000       0.00000000
O        3.27854000       4.32817000       1.42304000       0.00000000       0.00000000      -0.63408400       0.48377200       0.71157900       0.00000000       0.00000000       0.00000000       0.00000000
O        3.20680000       4.50298000       4.29295000       0.00000000       0.00000000      -0.11707400      -0.65054600       0.40078500       0.00000000       0.00200000       0.00000000       0.00200000
O        3.12631000       4.64825000       7.17732000       0.00000000       0.00000000       0.01690900      -0.60000300       0.63265200       0.00100000       0.01400000       0.00000000       0.01400000
O        3.26600000       4.54474000      10.44464000       0.00000000       0.00000000       0.00029100       0.42351200       0.01852000       0.00000000       0.01000000       0.00000000       0.01100000
O        3.46467000       4.28975000      13.34781000       0.00000000       0.00000000      -0.95189400       0.49477400      -0.11646600       0.00000000       0.00100000       0.00000000       0.00100000
O        3.35250000       4.21715000      16.27886000       0.00000000       0.00000000      -0.86171300       0.82986400      -1.04544300       0.00000000       0.00000000       0.00000000       0.00000000
O        3.08102000       8.33850000       1.53093000       0.00000000       0.00000000       0.56252500      -0.56077800      -0.27196900       0.00000000       0.00000000       0.00000000       0.00000000
O        3.07174000       8.47249000       4.53610000       0.00000000       0.00000000       0.25317200       0.44640500      -0.56298500       0.00000000       0.00000000       0.00000000       0.00000000
O        3.07632000       8.61790000       7.21714000       0.00000000       0.00000000       0.24669700      -0.52873700       0.07786800      -0.00000000       0.00200000       0.00000000       0.00100000
O        3.33941000       8.45832000      10.18877000       0.00000000       0.00000000       0.15136900       0.02189800      -0.71999500      -0.00000000       0.00100000       0.00000000       0.00100000
O        3.28966000       8.29724000      13.15565000       0.00000000       0.00000000       0.46714200      -0.19222600       0.57161800       0.00000000       0.00000000       0.00000000       0.00000000
O        3.35752000       8.19668000      16.15461000       0.00000000       0.00000000      -0.25284600       0.19357600       0.93483400       0.00000000       0.00000000       0.00000000       0.00000000
O        2.92582000      10.86250000       1.46858000       0.00000000       0.00000000       0.14830400      -0.38411100      -0.34982000       0.00000000       0.00000000       0.00000000       0.00000000
O        2.67017000      11.11780000       4.18256000       0.00000000       0.00000000       1.11000900      -0.76775700       1.76689200       0.00000000       0.00000000       0.00000000       0.00000000
O        2.80340000      11.18777000       7.25387000       0.00000000       0.00000000       0.25405600      -0.75824900       0.02269600      -0.00000000       0.00100000       0.00000000       0.00100000
O        2.93189000      10.96951000      10.25829000       0.00000000       0.00000000       0.36799200       0.26352400       0.38008400      -0.00000000       0.00100000       0.00000000       0.00100000
O        3.00458000      10.86589000      13.32787000       0.00000000       0.00000000       0.57199800      -0.42368000      -0.78890500       0.00000000       0.00000000       0.00000000       0.00000000
O        2.98984000      10.75117000      16.17139000       0.00000000       0.00000000       0.42756800       0.33905300       0.53434300       0.00000000       0.00000000       0.00000000       0.00000000
O        1.84106000      12.95359000      17.65955000       0.00000000       0.00000000      -0.23118600      -0.49614500       0.28228700      -0.00000000       0.00000000       0.00000000       0.00000000
O        1.79330000       0.07624000       2.90220000       0.00000000       0.00000000      -0.60629400      -0.25082700      -0.26560200      -0.00000000       0.00000000       0.00000000       0.00000000
O        1.86829000       0.22417000       5.87156000       0.00000000       0.00000000      -0.19895600      -0.15439200       0.04826100      -0.00000000       0.00000000       0.00000000       0.00000000
O        2.02705000       0.29354000       8.79423000       0.00000000       0.00000000      -0.56221500      -0.55061800       0.12219700      -0.00000000       0.00000000       0.00000000       0.00000000
O        1.94249000       0.03549000      11.76928000       0.00000000       0.00000000       0.45405600       0.06102900       0.18852000      -0.00000000       0.00000000       0.00000000       0.00000000
O        1.84730000       0.04306000      14.76625000       0.00000000       0.00000000       0.74391700      -0.97670800       0.38343300      -0.00000000       0.00000000       0.00000000       0.00000000
O        2.20358000       6.30199000       0.05333000       0.00000000       0.00000000       0.01663700      -0.18916000      -0.40878900      -0.00000000       0.00000000       0.00000000       0.00000000
O        2.10551000       6.49494000       2.98685000       0.00000000       0.00000000      -0.47733100      -0.32767300      -0.55528700      -0.00000000       0.00000000       0.00000000       0.00000000
O        1.92859000       6.47877000       5.87040000       0.00000000       0.00000000      -0.40043500       0.37306600      -0.42977400       0.00000000       0.00100000       0.00000000       0.00100000
O        1.93655000       6.68192000       8.85188000       0.00000000       0.00000000       1.07733700      -0.34108500       0.21684300      -0.00000000       0.00000000       0.00000000       0.00000000
O        2.03571000       6.41156000      11.84614000       0.00000000       0.00000000       1.22022400       0.60129300      -0.53582500       0.00000000       0.00100000       0.00000000       0.00100000
O        2.15429000       6.26162000      14.79853000       0.00000000       0.00000000       0.92356300       0.28828600       0.02087100      -0.00000000       0.00000000       0.00000000       0.00000000
O        1.39762000       2.77171000      17.66684000       0.00000000       0.00000000      -0.23109200       0.26766300       0.25262300       0.00000000       0.00000000       0.00000000       0.00000000
O        1.30550000       2.91141000       2.94221000       0.00000000       0.00000000       1.56954800      -0.03907100       0.06792300       0.00000000       0.00000000       0.00000000       0.00000000
O        1.31666000       3.19905000       5.88447000       0.00000000       0.00000000       0.64465600      -0.80752200      -0.28879500       0.00000000       0.00100000       0.00000000       0.00100000
O        1.38189000       3.02095000       8.89206000       0.00000000       0.00000000       2.01566600       0.52183100      -1.76697500       0.00000000       0.00700000       0.00000000       0.00700000
O        1.53286000       2.85425000      11.74940000       0.00000000       0.00000000       1.21998300       0.04558800       0.38356500       0.00000000       0.00000000       0.00000000       0.00000000
O        1.45921000       2.57396000      14.76303000       0.00000000       0.00000000       1.39699800       1.45787300       1.38779200       0.00000000       0.00000000       0.00000000       0.00000000
O        1.22734000       9.55466000      17.70922000       0.00000000       0.00000000      -1.41732100      -0.17756500       0.98791400       0.00000000       0.00000000       0.00000000       0.00000000
O        0.97357000       9.65251000       3.12072000       0.00000000       0.00000000       0.19694800      -0.30518400      -0.65694600      -0.00000000       0.00000000       0.00000000       0.00000000
O        0.91356000       9.63763000       5.78545000       0.00000000       0.00000000       1.28023600       0.17250900       0.60559900       0.00000000       0.00000000       0.00000000       0.00000000
O        1.12708000       9.79464000       8.67311000       0.00000000       0.00000000      -0.36855900      -0.54494900       1.44329000       0.00000000       0.00000000       0.00000000       0.00000000
O        1.34047000       9.44803000      11.81993000       0.00000000       0.00000000      -1.05489600       0.43328300      -0.08311400       0.00000000       0.00000000       0.00000000       0.00000000
O        1.20604000       9.65255000      14.84465000       0.00000000       0.00000000       0.33004500      -1.07454600      -0.97319100      -0.00000000       0.00000000       0.00000000       0.00000000
O       12.79497000       0.95148000       1.47585000       0.00000000       0.00000000       0.10187900       0.82220900       0.38221800      -0.00000000      -0.00000000       0.00000000      -0.00000000
O       12.78746000       1.16896000       4.24813000       0.00000000       0.00000000       0.11656900      -0.06475000       1.17298500       0.00000000       0.00000000       0.00000000       0.00000000
O       12.96997000       1.31564000       7.35066000       0.00000000       0.00000000      -0.09258400       0.16111600      -0.33024700       0.00000000       0.00000000       0.00000000       0.00000000
O        0.00404000       1.12602000      10.31484000       0.00000000       0.00000000      -0.35770000       1.79915200       0.78781400       0.00000000       0.00000000       0.00000000       0.00000000
O       12.85544000       1.03947000      13.40088000       0.00000000       0.00000000      -0.03725900       0.64718800      -1.02773600       0.00000000       0.00000000       0.00000000       0.00000000
O       12.73435000       0.96127000      16.37912000       0.00000000       0.00000000       0.29346000       1.24054800      -1.76310500       0.00000000      -0.00000000       0.00000000      -0.00000000
O        0.34039000       4.98486000       1.63743000       0.00000000       0.00000000      -0.34850500      -0.70102700      -0.72765700      -0.00000000       0.00000000       0.00000000       0.00000000
O        0.29269000       5.04589000       4.45867000       0.00000000       0.00000000      -0.79562900       0.97197100       0.04307500       0.00000000       0.00000000       0.00000000       0.00000000
O        0.15367000       5.21714000       7.41830000       0.00000000       0.00000000      -0.37001200       0.86026800      -0.10122000       0.00000000       0.00000000       0.00000000       0.00000000
O        0.19082000       5.10870000      10.36117000       0.00000000       0.00000000      -0.47686800       1.34796400      -0.42301100       0.00000000       0.00000000       0.00000000       0.00000000
O        0.55035000       5.12982000      13.27652000       0.00000000       0.00000000      -1.81083900      -1.60378400      -0.09610400      -0.00000000       0.00000000       0.00000000       0.00000000
O        0.26947000       4.93098000      16.27388000       0.00000000       0.00000000      -0.06405400      -0.71991000      -0.35994100      -0.00000000       0.00000000       0.00000000       0.00000000
O        0.19088000       7.53262000       1.47775000       0.00000000       0.00000000      -0.70271800       0.14187900       0.39915800       0.00000000       0.00000000       0.00000000       0.00000000
O        0.01518000       7.70066000       4.30356000       0.00000000       0.00000000      -0.52296600      -1.13804300       1.57676800       0.00000000       0.00000000       0.00000000       0.00000000
O       12.91319000       7.78961000       7.27168000       0.00000000       0.00000000      -0.05930800      -0.69661300       0.55039500       0.00000000       0.00000000       0.00000000       0.00000000
O        0.01698000       7.76885000      10.39347000       0.00000000       0.00000000       0.31007900      -0.79387100      -0.35152700       0.00000000       0.00000000       0.00000000       0.00000000
O        0.02427000       7.65656000      13.40013000       0.00000000       0.00000000       0.41706500      -2.29093700      -0.30592000       0.00000000       0.00000000       0.00000000       0.00000000
O        0.26360000       7.50037000      16.40584000       0.00000000       0.00000000      -0.05570800      -0.64730200      -0.98695900      -0.00000000       0.00000000       0.00000000       0.00000000
O       12.80257000      11.40263000       1.40825000       0.00000000       0.00000000       0.45564700       0.40185600       1.22565400      -0.00000000      -0.00000000       0.00000000      -0.00000000
O       12.83802000      11.53574000       4.59794000       0.00000000       0.00000000      -0.01935900       1.17473400      -0.91716200       0.00000000       0.00000000       0.00000000       0.00000000
O       12.85999000      11.77730000       7.38814000       0.00000000       0.00000000       0.17514600      -1.22782100      -0.69859200       0.00000000       0.00000000       0.00000000       0.00000000
O       12.96199000      11.67791000      10.38134000       0.00000000       0.00000000       0.24421400      -1.01925600      -1.49280400       0.00000000       0.00000000       0.00000000       0.00000000
O       12.87320000      11.44403000      13.19286000       0.00000000       0.00000000       0.50535300       1.08294400       0.98756900       0.00000000       0.00000000       0.00000000       0.00000000
O       12.90490000      11.30213000      16.21210000       0.00000000       0.00000000      -0.35151800       2.43235600       0.61789700       0.00000000       0.00000000       0.00000000       0.00000000
64
Lattice="8.449313 0.0 0.0 0.0 8.449313 0.0 0.0 0.0 8.449313" Properties=species:S:1:pos:R:3:decomposed_charges:R:1:decomposed_magmoms:R:1:forces:R:3:magmoms:R:4 energy=-148.77081549 pbc="T T T"
Mg       6.32487000       6.33945000       4.28105000       6.12170000       0.00130000       0.12148200      -0.22786100       0.09485500      -0.00100000      -0.00100000      -0.00100000      -0.00300000
Mg       0.05162000       2.12196000       2.09421000       6.12550000       0.00030000      -0.31992800       0.05075200       0.00078400      -0.00000000      -0.00000000       0.00000000      -0.00100000
Mg       2.12348000       8.35250000       2.17409000       6.11560000       0.00040000      -0.01139100       1.50768100       0.14631800      -0.00000000      -0.00000000      -0.00000000      -0.00100000
Mg       2.08248000       2.04724000       8.37763000       6.12330000       0.00010000      -0.15012900       0.82730300       1.05218300      -0.00000000      -0.00000000      -0.00000000      -0.00000000
Mg       0.03244000       0.00598000       4.24771000       6.13160000       0.00020000      -0.44664500       0.40943100       0.19378100      -0.00000000      -0.00000000      -0.00000000      -0.00000000
Mg       0.01360000       2.13990000       6.37405000       6.12100000       0.00020000      -0.91274900      -0.92518700      -0.07977800      -0.00000000      -0.00000000      -0.00000000      -0.00000000
Mg       2.08035000       0.02865000       6.35648000       6.12460000       0.00000000       0.13589300      -0.82558900      -0.62055900      -0.00000000      -0.00000000      -0.00000000      -0.00000000
Mg       2.04032000       2.21196000       4.27718000       6.12300000       0.00000000       0.42150400      -1.91349500      -0.80968300      -0.00000000      -0.00000000      -0.00000000      -0.00000000
Mg       8.28324000       4.32347000       8.38589000       6.11850000       0.00010000       1.32263800      -0.81582500       1.04368000      -0.00000000      -0.00000000      -0.00000000      -0.00000000
Mg       0.07296000       6.28509000       2.28307000       6.11950000       0.00090000       0.24538700       0.01871900      -0.97357700      -0.00300000      -0.00100000       0.00100000      -0.00300000
Mg       2.09262000       4.22893000       2.09046000       6.12380000       0.00020000      -0.35960000      -0.40184200      -0.55194400      -0.00000000      -0.00000000      -0.00000000      -0.00000000
Mg       2.12071000       6.41657000       8.42567000       6.11410000       0.00030000       0.02545500      -0.61097500       0.10621800      -0.00000000      -0.00000000      -0.00000000      -0.00100000
Mg       8.43875000       4.11551000       4.30319000       6.11620000       0.00000000      -0.61344900       0.37241900      -0.87047900      -0.00000000      -0.00000000      -0.00000000      -0.00000000
Mg       0.03892000       6.26876000       6.25859000       6.11800000       0.00020000       0.13157300       0.74908900       0.84955000      -0.00000000      -0.00000000      -0.00000000      -0.00000000
Mg       2.09294000       4.19670000       6.33355000       6.11200000       0.00000000       0.48376800       0.58085400       0.63101600      -0.00000000      -0.00000000      -0.00000000      -0.00000000
Mg       2.18652000       6.24680000       4.24711000       6.11640000       0.00020000       0.02149400       0.76981200       0.43973400      -0.00000000      -0.00000000      -0.00000000      -0.00000000
Mg       4.23442000       0.10985000       8.39739000       6.12990000       0.00010000      -0.04965500      -1.47412800       0.83164100      -0.00000000      -0.00000000      -0.00000000      -0.00000000
Mg       4.12311000       2.16929000       2.06258000       6.11890000       0.00010000       0.20268900      -0.77894500       0.10857100      -0.00000000      -0.00000000      -0.00000000      -0.00100000
Mg       6.41948000       0.20773000       2.02089000       6.13810000       0.00130000      -0.97830000      -2.17342300       0.50383500      -0.00200000      -0.00100000       0.00000000      -0.00300000
Mg       6.35995000       2.08089000       0.02264000       6.11460000       0.00000000       0.13423100       0.34114200      -0.40063500      -0.00000000      -0.00000000      -0.00000000      -0.00000000
Mg       4.39857000       8.42198000       4.30372000       6.11230000       0.00010000      -1.42547000       0.37184800      -0.78273900      -0.00000000      -0.00000000      -0.00000000      -0.00000000
Mg       4.23601000       2.11263000       6.33076000       6.10960000       0.00000000       0.17114600      -0.52383900      -0.04636600      -0.00000000      -0.00000000      -0.00000000      -0.00000000
Mg       6.40798000       8.40047000       6.36814000       6.11990000       0.00010000       0.05167000       0.74914200      -0.32819800      -0.00000000      -0.00000000      -0.00000000      -0.00000000
Mg       6.28649000       2.08717000       4.10520000       6.14090000       0.00010000       0.60402200      -0.30310900       1.02632300      -0.00000000      -0.00000000      -0.00000000      -0.00000000
Mg       4.18014000       4.30797000       8.37767000       6.12220000       0.00020000       0.19625300      -0.12695200       1.02271500      -0.00000000      -0.00000000      -0.00000000      -0.00000000
Mg       4.08444000       6.38275000       2.12801000       6.12590000       0.00070000       0.54632000       0.34004200      -0.84160400      -0.00300000      -0.00100000       0.00100000      -0.00200000
Mg       6.33252000       4.20949000       2.16668000       6.12390000       0.00090000       0.21253900      -0.72170600      -1.04566800      -0.00100000      -0.00100000      -0.00000000      -0.00200000
Mg       6.38951000       6.37800000       8.29082000       6.13430000       0.00130000      -0.61095400      -0.25357100       1.47311400      -0.00100000      -0.00100000      -0.00100000      -0.00300000
Mg       4.29037000       4.09488000       4.11704000       6.12740000       0.00020000      -0.90145200       1.33527300       0.35237200      -0.00000000      -0.00000000      -0.00000000      -0.00000000
Mg       4.28897000       6.32560000       6.39924000       6.13690000       0.00010000      -1.01133100       0.73919700      -0.31100900      -0.00000000      -0.00000000      -0.00000000      -0.00000000
Mg       0.03072000       8.36509000       0.04497000       6.13140000       0.00040000       0.11246900       0.76620200      -0.28617800      -0.00000000      -0.00000000      -0.00000000      -0.00100000
Mg       6.15842000       4.17495000       6.32389000       6.12350000       0.00010000       1.37040000      -0.24638300      -0.09632900      -0.00000000      -0.00000000      -0.00000000      -0.00000000
O        8.42248000       8.41972000       2.17779000       3.65300000      -0.08020000       0.11688400      -0.53902700      -0.47225500       0.00200000       0.08100000       0.00000000       0.08300000
O        6.23812000       4.18034000       4.18351000       3.68340000      -0.00300000       1.12850300       0.84377600       0.13674500      -0.00000000       0.00300000       0.00000000       0.00300000
O        2.08050000       0.08094000       0.05054000       3.68130000      -0.00090000       0.19297100      -1.39327400      -0.08733500      -0.00000000       0.00100000       0.00000000       0.00100000
O        0.03287000       2.05408000       8.42835000       3.65850000      -0.00090000      -0.49408200       0.63924400       0.24046800      -0.00000000       0.00100000       0.00000000       0.00100000
O        2.03017000       2.13330000       2.23076000       3.66180000      -0.00680000       0.84015500       0.32725400      -0.92463100       0.00000000       0.00700000       0.00000000       0.00700000
O        8.44645000       0.01225000       6.34875000       3.66480000      -0.00080000       0.22637100      -0.59759800       0.17500800      -0.00000000       0.00100000       0.00000000       0.00100000
O        2.01763000       0.10568000       4.22447000       3.64200000      -0.00200000       1.11914600      -0.85192700       0.23815400      -0.00000000       0.00200000       0.00000000       0.00200000
O        8.23111000       2.10147000       4.18203000       3.67670000      -0.00090000       2.15143300       0.41082600       0.65016100      -0.00000000       0.00100000       0.00000000       0.00100000
O        2.12206000       1.99858000       6.35094000       3.68430000      -0.00010000       0.06816700       2.05467900      -0.45688000      -0.00000000       0.00000000       0.00000000       0.00000000
O        8.39531000       4.18814000       2.13798000       3.65420000       0.00060000      -0.07719800       0.88355100       0.31010600      -0.00000000      -0.00000000       0.00000000      -0.00100000
O        2.08480000       4.29721000       0.01871000       3.63410000      -0.00170000       0.17578300      -0.58417300      -0.56472700      -0.00000000       0.00200000       0.00000000       0.00200000
O        8.43763000       6.34779000       0.09150000       3.65970000      -0.02390000       0.16106100      -0.37521600      -0.66409300       0.00000000       0.02400000       0.00000000       0.02500000
O        2.08143000       6.25363000       2.16437000       3.70080000       0.00040000       0.24428000       0.94927700      -0.04780200      -0.00000000      -0.00000000       0.00000000      -0.00000000
O        8.42774000       4.19992000       6.35810000       3.67210000      -0.00030000       0.20186600       0.19091700      -0.43695100      -0.00000000       0.00000000       0.00000000       0.00000000
O        2.13433000       4.18264000       4.14980000       3.67380000      -0.00040000      -0.13068800       0.28127800       1.16765600      -0.00000000       0.00000000       0.00000000       0.00000000
O        4.29846000       6.30999000       4.11617000       3.65580000      -0.02620000      -0.38102300       0.21425200       0.46594700       0.00000000       0.02600000       0.00000000       0.02700000
O        0.08832000       6.39809000       4.31545000       3.67560000      -0.00240000      -0.75248700      -1.30122200      -0.87228300      -0.00000000       0.00200000       0.00000000       0.00200000
O        4.21197000       0.12634000       2.05213000       3.63710000      -0.00250000       0.10643900      -1.24064200       0.60188900      -0.00000000       0.00300000       0.00000000       0.00300000
O        6.48274000       8.38260000       8.42234000       3.69030000      -0.01190000      -1.13019400       0.82158200      -0.00802300       0.00000000       0.01200000       0.00000000       0.01200000
O        4.23245000       2.04038000       0.02828000       3.67240000      -0.00080000      -0.12684500       1.44592100      -0.96625400      -0.00000000       0.00100000       0.00000000       0.00100000
O        6.34821000       2.05273000       2.08924000       3.71210000       0.00010000      -0.16699900       1.76861600      -0.31504100      -0.00000000      -0.00000000       0.00000000      -0.00000000
O        4.19248000       8.39356000       6.38357000       3.66500000      -0.00060000       0.74415200       0.53714600      -0.61830100      -0.00000000       0.00100000       0.00000000       0.00100000
O        6.38811000       8.33318000       4.25440000       3.67660000      -0.00180000      -0.31900400       0.54669600      -0.09599700      -0.00000000       0.00200000       0.00000000       0.00200000
O        4.32476000       2.10721000       4.18970000       3.67440000      -0.00040000      -1.10263100       0.00835200       0.43422000      -0.00000000       0.00000000       0.00000000       0.00000000
O        6.35744000       2.07941000       6.28275000       3.64060000      -0.00160000      -0.81644400       0.45802900       0.80354900       0.00000000       0.00200000       0.00000000       0.00200000
O        4.28647000       4.33220000       1.97273000       3.65490000      -0.04130000      -0.43018900      -0.72931000       1.34639700       0.00100000       0.04100000       0.00000000       0.04200000
O        6.28035000       4.23667000       0.10055000       3.65910000      -0.00270000       0.32067600      -0.04825600      -1.25767500      -0.00000000       0.00300000       0.00000000       0.00300000
O        4.28990000       6.42526000       0.03750000       3.65640000      -0.02280000      -0.46371900      -0.18219800      -0.07670500       0.00000000       0.02300000       0.00000000       0.02400000
O        6.33393000       6.47988000       2.01372000       3.44190000      -0.68210000       0.44809800      -0.59869000       0.69096700       0.01200000       0.67500000       0.00000000       0.68700000
O        4.20366000       4.36824000       6.34606000       3.68770000      -0.00050000      -0.46198700      -2.17972200      -0.22490300      -0.00000000       0.00000000       0.00000000       0.00000000
O        2.22826000       6.32833000       6.35926000       3.65550000      -0.00350000      -1.17990200      -0.08357200      -0.34782800       0.00000000       0.00400000       0.00000000       0.00400000
O        6.28302000       6.22145000       6.34340000       3.70100000       0.00000000       1.00481400       0.67385400      -0.51687000      -0.00000000      -0.00000000       0.00000000      -0.00000000
64
Lattice="8.449313 0.0 0.0 0.0 8.449313 0.0 0.0 0.0 8.449313" Properties=species:S:1:pos:R:3:decomposed_charges:R:1:decomposed_magmoms:R:1:forces:R:3:magmoms:R:4 energy=-148.72975131 pbc="T T T"
Mg       6.31966000       6.34184000       4.28272000       6.12250000       0.00130000       0.16269800      -0.28776700       0.04271200      -0.00100000      -0.00100000      -0.00100000      -0.00300000
Mg       0.06004000       2.12918000       2.08791000       6.12610000       0.00030000      -0.40667300      -0.00556800       0.08288600      -0.00100000      -0.00000000       0.00000000      -0.00100000
Mg       2.12267000       8.35457000       2.17458000       6.11630000       0.00030000       0.01596100       1.52819800       0.15743100      -0.00000000      -0.00000000      -0.00000000      -0.00100000
Mg       2.08426000       2.05202000       8.36893000       6.12320000       0.00000000      -0.18005300       0.77896700       1.08026900      -0.00000000      -0.00000000      -0.00000000      -0.00000000
Mg       0.02979000       0.00548000       4.25254000       6.13150000       0.00030000      -0.35498300       0.43998900       0.13832100      -0.00000000      -0.00000000      -0.00000000      -0.00100000
Mg       0.00247000       2.13956000       6.37331000       6.12110000       0.00010000      -0.80271900      -0.91649800      -0.08240300      -0.00000000      -0.00000000      -0.00000000      -0.00000000
Mg       2.07539000       0.02980000       6.35037000       6.12620000       0.00000000       0.16411500      -0.83548400      -0.61258700      -0.00000000      -0.00000000      -0.00000000      -0.00000000
Mg       2.03770000       2.21095000       4.27846000       6.12280000       0.00000000       0.37749500      -1.89599700      -0.82645600      -0.00000000      -0.00000000      -0.00000000      -0.00000000
Mg       8.27966000       4.31932000       8.38763000       6.11920000       0.00000000       1.36704100      -0.81916800       1.02570200      -0.00000000      -0.00000000      -0.00000000      -0.00000000
Mg       0.07629000       6.28136000       2.28347000       6.11870000       0.00110000       0.21418300       0.05474200      -0.98007200      -0.00300000      -0.00100000       0.00100000      -0.00300000
Mg       2.09318000       4.23330000       2.09248000       6.12340000       0.00020000      -0.34225500      -0.47423800      -0.56493100      -0.00000000      -0.00000000      -0.00000000      -0.00000000
Mg       2.12684000       6.41796000       8.42698000       6.11300000       0.00020000      -0.03778400      -0.59702400       0.06998200      -0.00000000      -0.00000000      -0.00000000      -0.00000000
Mg       8.44105000       4.12652000       4.30257000       6.11600000       0.00000000      -0.65909600       0.23373500      -0.87336400      -0.00000000      -0.00000000      -0.00000000      -0.00000000
Mg       0.03636000       6.26613000       6.25746000       6.11850000       0.00010000       0.14366500       0.77519500       0.91700700      -0.00000000      -0.00000000      -0.00000000      -0.00000000
Mg       2.09215000       4.20311000       6.32782000       6.11160000       0.00000000       0.45101500       0.48828100       0.66519100      -0.00000000      -0.00000000      -0.00000000      -0.00000000
Mg       2.18437000       6.23938000       4.25517000       6.11780000       0.00000000       0.08369000       0.89642700       0.34493400      -0.00000000      -0.00000000       0.00000000      -0.00000000
Mg       4.23494000       0.11335000       8.39143000       6.12990000       0.00010000      -0.11202200      -1.48086700       0.92502300      -0.00000000      -0.00000000      -0.00000000      -0.00000000
Mg       4.12564000       2.17061000       2.06335000       6.11890000       0.00030000       0.18932900      -0.82445300       0.11138200      -0.00000000      -0.00000000      -0.00000000      -0.00100000
Mg       6.42118000       0.20903000       2.02656000       6.13810000       0.00130000      -0.96455400      -2.14551700       0.46512900      -0.00200000      -0.00100000       0.00000000      -0.00300000
Mg       6.34937000       2.07562000       0.02166000       6.11490000       0.00010000       0.25524500       0.39239500      -0.31791800      -0.00000000      -0.00000000      -0.00000000      -0.00000000
Mg       4.39744000       8.41709000       4.30836000       6.11240000       0.00020000      -1.47921100       0.41096100      -0.84740300      -0.00000000      -0.00000000      -0.00000000      -0.00000000
Mg       4.23949000       2.11167000       6.32744000       6.10980000       0.00000000       0.09462400      -0.52220800      -0.05197600      -0.00000000      -0.00000000      -0.00000000      -0.00000000
Mg       6.40002000       8.40130000       6.36966000       6.11950000       0.00010000       0.16999100       0.75608000      -0.35137700      -0.00000000      -0.00000000       0.00000000      -0.00000000
Mg       6.28397000       2.08163000       4.10630000       6.14180000       0.00000000       0.74256400      -0.23701000       0.99584000      -0.00000000      -0.00000000      -0.00000000      -0.00000000
Mg       4.17799000       4.30645000       8.36887000       6.12190000       0.00030000       0.23563200      -0.18171900       1.16629000      -0.00000000      -0.00000000      -0.00000000      -0.00000000
Mg       4.08442000       6.37799000       2.13342000       6.12580000       0.00080000       0.58799200       0.41186300      -0.82338400      -0.00300000      -0.00100000       0.00100000      -0.00200000
Mg       6.32557000       4.21311000       2.16582000       6.12420000       0.00080000       0.34286900      -0.79913300      -0.97162200      -0.00100000      -0.00100000       0.00000000      -0.00200000
Mg       6.38765000       6.38195000       8.29221000       6.13360000       0.00140000      -0.54732600      -0.27730700       1.49143100      -0.00100000      -0.00100000      -0.00100000      -0.00300000
Mg       4.29000000       4.08820000       4.11685000       6.12810000       0.00010000      -0.87583000       1.36119100       0.35101500      -0.00000000      -0.00000000      -0.00000000      -0.00000000
Mg       4.29016000       6.31831000       6.40258000       6.13610000       0.00010000      -1.05145200       0.82584600      -0.39042700      -0.00000000      -0.00000000      -0.00000000      -0.00000000
Mg       0.03245000       8.36344000       0.04051000       6.13030000       0.00010000       0.10090600       0.81394800      -0.23783400      -0.00000000      -0.00000000      -0.00000000      -0.00100000
Mg       6.15966000       4.17881000       6.31991000       6.12310000       0.00010000       1.37964300      -0.31783400      -0.08651800      -0.00000000      -0.00000000      -0.00000000      -0.00000000
O        8.42493000       8.43608000       2.18922000       3.64860000      -0.09640000       0.10551100      -0.75270900      -0.57511000       0.00200000       0.09500000       0.00000000       0.09700000
O        6.23569000       4.17840000       4.18921000       3.68270000      -0.00250000       1.13048700       0.85924100       0.14711200      -0.00000000       0.00300000       0.00000000       0.00300000
O        2.07855000       0.08469000       0.04996000       3.68000000      -0.00060000       0.21518000      -1.45788500      -0.09623600      -0.00000000       0.00100000       0.00000000       0.00100000
O        0.03433000       2.05259000       8.43589000       3.65770000      -0.00110000      -0.52096600       0.65330500       0.13965600      -0.00000000       0.00100000       0.00000000       0.00100000
O        2.03780000       2.13182000       2.23391000       3.66140000      -0.00820000       0.80609200       0.44111600      -0.93139100       0.00000000       0.00800000       0.00000000       0.00800000
O        0.00438000       0.01310000       6.34303000       3.66530000      -0.00070000       0.08918000      -0.64215800       0.20056000      -0.00000000       0.00100000       0.00000000       0.00100000
O        2.02133000       0.10862000       4.21673000       3.64220000      -0.00240000       1.05527600      -0.87246900       0.31199900      -0.00000000       0.00200000       0.00000000       0.00200000
O        8.23180000       2.10237000       4.18231000       3.67390000      -0.00150000       2.11657300       0.46136400       0.68400800      -0.00000000       0.00100000       0.00000000       0.00100000
O        2.11147000       1.99089000       6.34455000       3.68390000      -0.00010000       0.20037400       2.23979600      -0.41602400      -0.00000000       0.00000000       0.00000000       0.00000000
O        8.39450000       4.18888000       2.13773000       3.65490000       0.00090000      -0.04226500       0.92724200       0.32400200      -0.00000000      -0.00100000       0.00000000      -0.00100000
O        2.08746000       4.28798000       0.02041000       3.63290000      -0.00170000       0.22115900      -0.50478600      -0.58794800      -0.00000000       0.00200000       0.00000000       0.00200000
O        8.43444000       6.34290000       0.08594000       3.65880000      -0.02000000       0.26224200      -0.26676100      -0.66097200       0.00000000       0.01900000       0.00000000       0.02000000
O        2.08653000       6.25556000       2.16568000       3.70100000       0.00060000       0.18457200       0.90525700      -0.06572900      -0.00000000      -0.00000000       0.00000000      -0.00100000
O        8.43268000       4.19796000       6.35874000       3.67260000      -0.00020000       0.15075200       0.22773100      -0.43367000      -0.00000000       0.00000000       0.00000000       0.00000000
O        2.13645000       4.19091000       4.15129000       3.67550000      -0.00030000      -0.13784000       0.13238500       1.17075000      -0.00000000       0.00000000       0.00000000       0.00000000
O        4.30203000       6.30750000       4.12268000       3.65720000      -0.02280000      -0.42733700       0.23159200       0.46836600       0.00000000       0.02200000       0.00000000       0.02300000
O        0.09461000       6.38878000       4.31901000       3.67640000      -0.00260000      -0.81853300      -1.26840000      -0.92807000      -0.00000000       0.00300000       0.00000000       0.00200000
O        4.20881000       0.12590000       2.04997000       3.63520000      -0.00180000       0.18219800      -1.28651400       0.56834000      -0.00000000       0.00200000       0.00000000       0.00200000
O        6.48027000       8.39116000       8.42006000       3.69050000      -0.00890000      -1.10333100       0.68979400      -0.00739600      -0.00000000       0.00900000       0.00000000       0.00900000
O        4.23422000       2.04256000       0.02829000       3.67380000      -0.00080000      -0.13109200       1.47474300      -0.97089200      -0.00000000       0.00100000       0.00000000       0.00100000
O        6.35237000       2.05182000       2.09889000       3.71160000       0.00020000      -0.25686700       1.77433900      -0.43808900      -0.00000000      -0.00000000       0.00000000      -0.00000000
O        4.18010000       8.40686000       6.38297000       3.66540000      -0.00060000       0.89127800       0.41033000      -0.60174700      -0.00000000       0.00100000       0.00000000       0.00100000
O        6.38977000       8.33226000       4.25226000       3.67730000      -0.00290000      -0.36155400       0.52112800      -0.04934000      -0.00000000       0.00300000       0.00000000       0.00300000
O        4.33069000       2.10183000       4.18482000       3.67620000      -0.00040000      -1.17337300       0.05602100       0.51242000      -0.00000000       0.00000000       0.00000000       0.00000000
O        6.35884000       2.07378000       6.29085000       3.64240000      -0.00180000      -0.86104100       0.49540200       0.76455300       0.00000000       0.00200000       0.00000000       0.00200000
O        4.29713000       4.33451000       1.98044000       3.65550000      -0.04330000      -0.55266600      -0.72727600       1.22549800       0.00100000       0.04300000       0.00000000       0.04400000
O        6.28847000       4.23373000       0.10228000       3.65850000      -0.00470000       0.14666600       0.00791200      -1.27951000      -0.00000000       0.00500000       0.00000000       0.00500000
O        4.28720000       6.41597000       0.03432000       3.65590000      -0.02370000      -0.40802200      -0.10343400      -0.07752200       0.00000000       0.02400000       0.00000000       0.02400000
O        6.34571000       6.47972000       2.01742000       3.44260000      -0.67740000       0.36167400      -0.59174700       0.65938800       0.01200000       0.67100000       0.00000000       0.68300000
O        4.20058000       4.35974000       6.34319000       3.68920000      -0.00040000      -0.40605400      -2.07876900      -0.21463400      -0.00000000       0.00000000       0.00000000       0.00000000
O        2.22910000       6.33987000       6.34988000       3.65650000      -0.00330000      -1.17487100      -0.20804300      -0.22544500       0.00000000       0.00300000       0.00000000       0.00300000
O        6.28495000       6.22122000       6.34154000       3.70160000       0.00020000       0.94220000       0.69379600      -0.44742400      -0.00000000      -0.00000000       0.00000000      -0.00000000
64
Lattice="8.449313 0.0 0.0 0.0 8.449313 0.0 0.0 0.0 8.449313" Properties=species:S:1:pos:R:3:decomposed_charges:R:1:decomposed_magmoms:R:1:forces:R:3:magmoms:R:4 energy=-148.68920103 pbc="T T T"
Mg       6.31452000       6.34411000       4.28440000       6.12320000       0.00120000       0.24568600      -0.32350800       0.02651000      -0.00100000      -0.00100000      -0.00100000      -0.00300000
Mg       0.06830000       2.13641000       2.08164000       6.12650000       0.00030000      -0.48616700      -0.07033200       0.16565600      -0.00100000      -0.00000000       0.00000000      -0.00100000
Mg       2.12186000       8.35725000       2.17513000       6.11680000       0.00040000       0.03218200       1.54393900       0.16147600      -0.00100000      -0.00000000      -0.00000000      -0.00100000
Mg       2.08597000       2.05711000       8.36066000       6.12300000       0.00000000      -0.20785300       0.72135100       1.09994000      -0.00000000      -0.00000000      -0.00000000      -0.00000000
Mg       0.02700000       0.00516000       4.25742000       6.13150000       0.00030000      -0.26222700       0.46402300       0.07112200      -0.00000000      -0.00000000      -0.00000000      -0.00100000
Mg       8.44032000       2.13886000       6.37254000       6.12130000       0.00010000      -0.67919400      -0.89717900      -0.08487000      -0.00000000      -0.00000000      -0.00000000      -0.00000000
Mg       2.07049000       0.03062000       6.34401000       6.12820000       0.00000000       0.19715900      -0.83113900      -0.59941000      -0.00000000      -0.00000000      -0.00000000      -0.00000000
Mg       2.03523000       2.20918000       4.27940000       6.12260000       0.00000000       0.33602800      -1.86314000      -0.83751500      -0.00000000      -0.00000000      -0.00000000      -0.00000000
Mg       8.27662000       4.31485000       8.38977000       6.11990000       0.00030000       1.40964900      -0.83473200       0.99432000      -0.00000000      -0.00000000      -0.00000000      -0.00000000
Mg       0.07970000       6.27764000       2.28348000       6.11800000       0.00100000       0.22658000       0.10602700      -0.93523400      -0.00300000      -0.00100000       0.00100000      -0.00300000
Mg       2.09361000       4.23748000       2.09427000       6.12310000       0.00030000      -0.31690300      -0.54433400      -0.57205700      -0.00000000      -0.00000000      -0.00000000      -0.00100000
Mg       2.13296000       6.41912000       8.42833000       6.11180000       0.00020000      -0.07863100      -0.57698600       0.03700900      -0.00000000      -0.00000000      -0.00000000      -0.00000000
Mg       8.44309000       4.13762000       4.30160000       6.11580000       0.00000000      -0.68974500       0.09426000      -0.86476200      -0.00000000      -0.00000000      -0.00000000      -0.00000000
Mg       0.03386000       6.26381000       6.25668000       6.11910000       0.00010000       0.15712600       0.79457100       0.96154400      -0.00000000      -0.00000000      -0.00000000      -0.00000000
Mg       2.09153000       4.20971000       6.32236000       6.11170000       0.00010000       0.41475900       0.38720400       0.69359400      -0.00000000      -0.00000000      -0.00000000      -0.00000000
Mg       2.18225000       6.23232000       4.26337000       6.11930000       0.00010000       0.12459100       1.01983200       0.24162500      -0.00000000      -0.00000000       0.00000000      -0.00000000
Mg       4.23543000       0.11626000       8.38584000       6.12940000       0.00000000      -0.18646500      -1.47404800       1.00721200      -0.00000000      -0.00000000      -0.00000000      -0.00000000
Mg       4.12825000       2.17161000       2.06416000       6.11920000       0.00020000       0.17354400      -0.85760000       0.11236700      -0.00000000      -0.00000000      -0.00000000      -0.00100000
Mg       6.42248000       0.20947000       2.03243000       6.13770000       0.00150000      -0.91812300      -2.10272800       0.45383900      -0.00200000      -0.00100000      -0.00000000      -0.00400000
Mg       6.33889000       2.07049000       0.02055000       6.11540000       0.00000000       0.37173200       0.46037000      -0.23915500      -0.00000000      -0.00000000      -0.00000000      -0.00000000
Mg       4.39572000       8.41236000       4.31266000       6.11260000       0.00020000      -1.52701300       0.46492500      -0.89957600      -0.00000000      -0.00000000      -0.00000000      -0.00000000
Mg       4.24300000       2.11050000       6.32410000       6.11020000       0.00000000       0.01827100      -0.51032700      -0.05897400      -0.00000000      -0.00000000      -0.00000000      -0.00000000
Mg       6.39213000       8.40243000       6.37103000       6.11910000       0.00010000       0.27680500       0.76012800      -0.38665900      -0.00000000      -0.00000000       0.00000000      -0.00000000
Mg       6.28174000       2.07599000       4.10779000       6.14250000       0.00010000       0.87541800      -0.17720200       0.96631800      -0.00000000      -0.00000000      -0.00000000      -0.00000000
Mg       4.17593000       4.30486000       8.36054000       6.12170000       0.00030000       0.27563800      -0.23544100       1.29611700      -0.00000000      -0.00000000      -0.00000000      -0.00000000
Mg       4.08463000       6.37340000       2.13850000       6.12530000       0.00090000       0.56364800       0.45861900      -0.84477500      -0.00300000      -0.00100000       0.00100000      -0.00200000
Mg       6.31875000       4.21641000       2.16457000       6.12460000       0.00080000       0.46483000      -0.86308400      -0.92467600      -0.00100000      -0.00100000       0.00000000      -0.00200000
Mg       6.38558000       6.38579000       8.29419000       6.13260000       0.00140000      -0.52739800      -0.32772700       1.46446500      -0.00100000      -0.00100000      -0.00100000      -0.00300000
Mg       4.28928000       4.08206000       4.11680000       6.12870000       0.00010000      -0.85132000       1.36797800       0.35238700      -0.00000000      -0.00000000      -0.00000000      -0.00000000
Mg       4.29094000       6.31134000       6.40577000       6.13560000       0.00020000      -1.08727900       0.88958200      -0.44891200      -0.00000000      -0.00000000      -0.00000000      -0.00000000
Mg       0.03421000       8.36212000       0.03596000       6.12910000       0.00030000       0.09713400       0.87094300      -0.19156600      -0.00000000      -0.00000000      -0.00000000      -0.00100000
Mg       6.16145000       4.18255000       6.31589000       6.12270000       0.00010000       1.38038800      -0.38944700      -0.06041900      -0.00000000      -0.00000000      -0.00000000      -0.00000000
O        8.42745000       0.00268000       2.20030000       3.64490000      -0.10230000       0.12927400      -0.98306100      -0.72752700       0.00200000       0.10100000       0.00000000       0.10300000
O        6.23394000       4.17698000       4.19501000       3.68160000      -0.00320000       1.15064300       0.89438000       0.13320800      -0.00000000       0.00300000       0.00000000       0.00300000
O        2.07672000       0.08756000       0.04933000       3.67840000      -0.00060000       0.22295800      -1.49811900      -0.10224800      -0.00000000       0.00100000       0.00000000       0.00100000
O        0.03548000       2.05150000       8.44352000       3.65700000      -0.00100000      -0.53505100       0.63546100       0.04735300      -0.00000000       0.00100000       0.00000000       0.00100000
O        2.04592000       2.13060000       2.23650000       3.66100000      -0.00900000       0.76372800       0.52428600      -0.94933200       0.00000000       0.00900000       0.00000000       0.00900000
O        0.01168000       0.01356000       6.33743000       3.66620000      -0.00080000      -0.06147900      -0.68824200       0.23520000      -0.00000000       0.00100000       0.00000000       0.00100000
O        2.02567000       0.11105000       4.20917000       3.64250000      -0.00270000       1.01603200      -0.95115200       0.36333400      -0.00000000       0.00300000       0.00000000       0.00300000
O        8.23376000       2.10356000       4.18301000       3.67130000      -0.00170000       2.08313700       0.51135100       0.71349500      -0.00000000       0.00200000       0.00000000       0.00200000
O        2.10099000       1.98455000       6.33789000       3.68340000      -0.00020000       0.26252000       2.37552500      -0.34396000      -0.00000000       0.00000000       0.00000000       0.00000000
O        8.39366000       4.19018000       2.13767000       3.65560000       0.00060000       0.01289000       0.96078800       0.34426800      -0.00000000      -0.00100000       0.00000000      -0.00100000
O        2.09025000       4.27844000       0.02176000       3.63180000      -0.00160000       0.21844300      -0.37255600      -0.61992800      -0.00000000       0.00200000       0.00000000       0.00200000
O        8.43141000       6.33783000       0.07998000       3.65650000      -0.02270000       0.26980100      -0.13360800      -0.58029900       0.00000000       0.02300000       0.00000000       0.02300000
O        2.09174000       6.25804000       2.16695000       3.70100000       0.00040000       0.10375300       0.85306800      -0.11604400      -0.00000000      -0.00100000       0.00000000      -0.00100000
O        8.43772000       4.19615000       6.35912000       3.67310000      -0.00030000       0.14224300       0.27067500      -0.43291000      -0.00000000       0.00000000       0.00000000       0.00000000
O        2.13848000       4.19925000       4.15348000       3.67720000      -0.00040000      -0.12222200       0.01219700       1.14415200      -0.00000000       0.00000000       0.00000000       0.00000000
O        4.30534000       6.30514000       4.12948000       3.65750000      -0.02470000      -0.46655200       0.26063500       0.42214600       0.00000000       0.02500000       0.00000000       0.02500000
O        0.10042000       6.37869000       4.32201000       3.67750000      -0.00210000      -0.85625700      -1.20168200      -0.97305600      -0.00000000       0.00200000       0.00000000       0.00200000
O        4.20575000       0.12469000       2.04816000       3.63280000      -0.00300000       0.24873900      -1.32375900       0.53069800      -0.00000000       0.00300000       0.00000000       0.00300000
O        6.47714000       8.40013000       8.41778000       3.69000000      -0.00900000      -1.07959800       0.53132600       0.02681100      -0.00000000       0.00900000       0.00000000       0.00900000
O        4.23592000       2.04563000       0.02770000       3.67520000      -0.00080000      -0.14147200       1.48456600      -0.97980300      -0.00000000       0.00100000       0.00000000       0.00100000
O        6.35637000       2.05199000       2.10827000       3.71090000       0.00010000      -0.34497500       1.77991000      -0.59267800      -0.00000000      -0.00000000       0.00000000      -0.00000000
O        4.16824000       8.42041000       6.38201000       3.66590000      -0.00050000       1.01620600       0.24528700      -0.58984900      -0.00000000       0.00100000       0.00000000       0.00000000
O        6.39122000       8.33164000       4.25009000       3.67860000      -0.00100000      -0.40214800       0.50344800       0.02223100      -0.00000000       0.00100000       0.00000000       0.00100000
O        4.33591000       2.09648000       4.18023000       3.67750000      -0.00050000      -1.22472100       0.08732300       0.58002000      -0.00000000       0.00000000       0.00000000       0.00000000
O        6.35973000       2.06845000       6.29941000       3.64470000      -0.00170000      -0.89757700       0.51507300       0.67395600       0.00000000       0.00200000       0.00000000       0.00200000
O        4.30746000       4.33639000       1.98889000       3.65670000      -0.04370000      -0.69308100      -0.72808700       1.09971500       0.00100000       0.04300000       0.00000000       0.04400000
O        6.29667000       4.23080000       0.10323000       3.65820000      -0.00380000      -0.02280600       0.04606300      -1.31063100      -0.00000000       0.00400000       0.00000000       0.00300000
O        4.28425000       6.40661000       0.03109000       3.65640000      -0.02040000      -0.36422600      -0.03481800      -0.09980700       0.00000000       0.02000000       0.00000000       0.02000000
O        6.35771000       6.47921000       2.02152000       3.44370000      -0.67390000       0.31358900      -0.51949300       0.60671400       0.01100000       0.66800000       0.00000000       0.68000000
O        4.19726000       4.34998000       6.34018000       3.69030000      -0.00050000      -0.32280600      -1.95133300      -0.20268900      -0.00000000       0.00000000       0.00000000       0.00000000
O        2.22923000       6.35129000       6.34036000       3.65760000      -0.00360000      -1.12763700      -0.37818000      -0.03453900       0.00000000       0.00300000       0.00000000       0.00300000
O        6.28745000       6.22141000       6.33941000       3.70170000       0.00010000       0.88927400       0.72682300      -0.39161900      -0.00000000      -0.00000000       0.00000000      -0.00000000
