64
Lattice="8.449313 0.0 0.0 0.0 8.449313 0.0 0.0 0.0 8.449313" Properties=species:S:1:pos:R:3:decomposed_charges:R:1:decomposed_magmoms:R:1:forces:R:3:magmoms:R:4 energy=-148.41823872 pbc="T T T"
Mg       6.33265000       6.25395000       4.27976000       6.12380000       0.00000000       0.06411900       0.37184900      -0.59447600      -0.00000000      -0.00000000      -0.00000000      -0.00000000
Mg       8.37318000       2.12865000       2.02936000       6.12580000       0.00000000       0.78817800      -0.19846800       1.53909600      -0.00000000      -0.00000000      -0.00000000      -0.00000000
Mg       2.06730000       8.44382000       2.07628000       6.11620000       0.00020000       0.93348700       0.23651200       0.39196100      -0.00000000      -0.00000000      -0.00000000      -0.00100000
Mg       2.06468000       2.13668000       0.05168000       6.12190000       0.00010000       0.79962300      -0.11493700      -0.65935400      -0.00000000      -0.00000000      -0.00000000      -0.00000000
Mg       0.14820000       0.09369000       4.19813000       6.10390000       0.00030000      -0.74429700      -0.27566200       0.26029500      -0.00000000      -0.00000000      -0.00000000      -0.00100000
Mg       0.08458000       2.28916000       6.45216000       6.13200000       0.00020000      -0.57968700      -1.99646700      -1.22481300      -0.00000000      -0.00000000      -0.00000000      -0.00000000
Mg       2.11544000       8.41631000       6.22017000       6.13680000       0.00020000       0.30740500       0.83361700       1.28562400      -0.00000000      -0.00000000       0.00000000      -0.00100000
Mg       2.17180000       2.24604000       4.32276000       6.12900000       0.00000000      -0.42233700      -0.68989100      -0.41968600      -0.00000000      -0.00000000      -0.00000000      -0.00000000
Mg       8.43910000       4.15741000       0.00201000       6.13140000       0.00020000      -0.54876300       0.82406400       0.46763900      -0.00000000      -0.00000000      -0.00000000      -0.00000000
Mg       8.43259000       6.27854000       1.91817000       6.12430000       0.00010000      -0.35422800       0.15104200       1.64047400      -0.00000000      -0.00000000      -0.00000000      -0.00000000
Mg       2.09985000       4.15665000       2.06671000       6.12260000       0.00000000      -0.11235300       0.54930400       0.93832700      -0.00000000      -0.00000000      -0.00000000      -0.00000000
Mg       2.10266000       6.29374000       8.35182000       6.13050000       0.00010000       0.46706900       0.57237600       1.15136300      -0.00000000      -0.00000000      -0.00000000      -0.00000000
Mg       8.39017000       4.30103000       4.20795000       6.12030000       0.00010000       1.13063800      -0.70208100      -0.04013300      -0.00000000      -0.00000000      -0.00000000      -0.00000000
Mg       0.03498000       6.27808000       6.37146000       6.12630000       0.00010000      -0.77037600       1.01002200      -0.44340200      -0.00000000      -0.00000000      -0.00000000      -0.00000000
Mg       2.05795000       4.24533000       6.51752000       6.13100000       0.00000000       0.44688300       0.10923000      -1.39636200      -0.00000000      -0.00000000      -0.00000000      -0.00000000
Mg       2.00680000       6.40992000       4.13099000       6.12360000       0.00000000       0.17742700      -1.03139600       0.86458500      -0.00000000      -0.00000000      -0.00000000      -0.00000000
Mg       4.01808000       0.10464000       8.37520000       6.14090000       0.00170000       1.59069600      -0.47631900       0.37121400      -0.00300000      -0.00200000       0.00100000      -0.00400000
Mg       4.26686000       2.17829000       2.19750000       6.11920000       0.00020000      -0.46831200      -0.56260200      -0.89709300      -0.00000000      -0.00000000      -0.00000000      -0.00000000
Mg       6.28023000       8.35329000       2.20120000       6.12650000       0.00130000       0.81360500       0.06181100      -0.53381500      -0.00100000      -0.00100000      -0.00000000      -0.00300000
Mg       6.41193000       2.03696000       0.00595000       6.13400000       0.00180000      -1.27988400       0.71544200      -0.09780700      -0.00100000      -0.00200000      -0.00100000      -0.00300000
Mg       4.28816000       8.28617000       4.18516000       6.13210000       0.00030000      -0.84833200       1.58104000       0.29216700      -0.00000000      -0.00000000      -0.00000000      -0.00100000
Mg       4.29043000       2.16104000       6.32622000       6.12320000       0.00020000      -0.76624500      -1.08429600       0.35636800      -0.00000000      -0.00000000      -0.00000000      -0.00000000
Mg       6.40751000       0.04704000       6.22121000       6.12180000       0.00140000       0.16918400      -0.97443400       0.19151700      -0.00100000      -0.00100000      -0.00100000      -0.00300000
Mg       6.27037000       2.09996000       4.23158000       6.10680000       0.00000000       0.64958100      -0.00678400      -0.09066600      -0.00000000      -0.00000000      -0.00000000      -0.00000000
Mg       4.31190000       4.21810000       0.05760000       6.12110000       0.00010000      -0.70702700      -0.06566700      -0.21638500      -0.00000000      -0.00000000       0.00000000      -0.00000000
Mg       4.18326000       6.29629000       2.10656000       6.11520000       0.00020000       0.10507500       0.14941000      -0.43100200      -0.00000000      -0.00000000      -0.00000000      -0.00000000
Mg       6.37541000       4.13190000       2.14256000       6.12240000       0.00000000      -0.66636700       0.92825100      -0.27817700      -0.00000000      -0.00000000      -0.00000000      -0.00000000
Mg       6.31982000       6.28049000       8.44552000       6.12570000       0.00170000      -0.19698000      -0.20839600      -0.51896800      -0.00100000      -0.00200000      -0.00100000      -0.00400000
Mg       4.07094000       4.28528000       4.32544000       6.12260000       0.00000000       0.26309500       0.07931300      -0.96220900      -0.00000000      -0.00000000      -0.00000000      -0.00000000
Mg       4.22538000       6.43124000       6.35309000       6.12350000       0.00010000      -0.12978300      -0.63125500       0.04485000      -0.00000000      -0.00000000      -0.00000000      -0.00000000
Mg       0.19040000       8.41796000       0.09292000       6.13420000       0.00060000      -0.11994200       0.23062100      -1.52358400      -0.00300000      -0.00100000       0.00200000      -0.00200000
Mg       6.24237000       4.16405000       6.35736000       6.10780000       0.00000000       0.65984700       0.46478000      -0.02783100      -0.00000000      -0.00000000      -0.00000000      -0.00000000
O        0.01244000       8.43706000       2.06362000       3.66730000      -0.00750000      -0.26246200       0.15545400       0.45117700       0.00000000       0.00700000       0.00000000       0.00700000
O        6.39222000       4.16681000       4.23202000       3.66460000      -0.00040000      -0.80616700       0.02500100       0.48423100      -0.00000000       0.00000000       0.00000000       0.00000000
O        2.17033000       8.40130000       8.41195000       3.71200000       0.00040000      -1.24816200       0.62539600       0.65853400      -0.00000000      -0.00000000       0.00000000      -0.00000000
O        8.35044000       2.09260000       0.05734000       3.71410000      -0.01070000       1.38514800      -0.04089800      -0.32563200       0.00000000       0.01100000       0.00000000       0.01100000
O        2.15823000       2.08855000       2.02501000       3.65900000      -0.00120000      -0.13768900      -0.02057500       0.34652300      -0.00000000       0.00100000       0.00000000       0.00100000
O        0.15803000       0.07128000       6.41350000       3.62390000      -0.06290000      -1.83811200      -0.08362400      -0.49338000       0.00100000       0.06200000       0.00000000       0.06400000
O        2.25304000       8.42942000       4.27786000       3.67950000      -0.00530000      -0.98045600       0.41293300      -1.23491200       0.00000000       0.00500000       0.00000000       0.00500000
O        0.20531000       2.18197000       4.19832000       3.63070000      -0.00090000      -1.96452800      -0.73395600      -0.03343100      -0.00000000       0.00100000       0.00000000       0.00100000
O        2.06075000       2.20287000       6.42580000       3.67380000      -0.00140000       0.67221600      -0.57624200       0.09302700      -0.00000000       0.00100000       0.00000000       0.00100000
O        8.42365000       4.20343000       2.06020000       3.68320000      -0.00040000      -0.14855900       0.05346300      -0.09577700      -0.00000000       0.00000000       0.00000000       0.00000000
O        2.07756000       4.25932000       0.07968000       3.69370000      -0.00330000       0.09499600      -0.34826800      -0.49230000       0.00000000       0.00300000       0.00000000       0.00300000
O        0.02740000       6.39852000       8.39791000       3.69040000      -0.02920000      -0.64687700      -0.49780600       0.32091400       0.00000000       0.02900000       0.00000000       0.02900000
O        1.98698000       6.35223000       2.15609000       3.66500000      -0.00080000       1.01448700       0.12119300      -0.95901200      -0.00000000       0.00100000       0.00000000       0.00100000
O        0.00761000       4.24610000       6.44662000       3.69760000      -0.00040000      -0.31586300       0.19197500      -0.45103200      -0.00000000       0.00000000       0.00000000       0.00000000
O        2.04231000       4.23325000       4.19737000       3.66480000      -0.00020000       0.17173100       0.79883700       0.15906900      -0.00000000       0.00000000       0.00000000       0.00000000
O        4.12407000       6.37939000       4.25292000       3.68150000      -0.00050000       0.59968800      -1.32416200      -0.20503200      -0.00000000       0.00100000       0.00000000       0.00100000
O        8.34114000       6.36160000       4.23286000       3.64870000      -0.00030000       1.00763800       0.00147300      -0.08502100      -0.00000000       0.00000000       0.00000000       0.00000000
O        4.33077000       0.03162000       1.95593000       3.63660000      -0.05940000      -0.94045000      -0.44937100       0.74003500       0.00100000       0.05900000       0.00000000       0.06000000
O        6.40571000       8.36910000       8.41799000       3.45890000      -0.68110000      -0.01335100       0.23660200       0.10543500       0.01200000       0.67500000       0.00000000       0.68700000
O        4.35800000       2.14866000       8.39077000       3.65210000      -0.02110000      -0.75276300      -0.43600400       0.32201500       0.00000000       0.02100000       0.00000000       0.02100000
O        6.31685000       2.06711000       2.07061000       3.67790000      -0.00030000       0.31530800       0.04887600       0.77550100      -0.00000000       0.00000000       0.00000000      -0.00000000
O        4.33155000       8.39398000       6.39434000       3.66910000      -0.01510000      -0.57870300       1.25974100      -0.58442500       0.00000000       0.01500000       0.00000000       0.01500000
O        6.26443000       8.32814000       4.16355000       3.68020000       0.00020000       0.75120600       1.34548900       0.47352700      -0.00000000      -0.00000000       0.00000000      -0.00000000
O        4.17675000       2.16321000       4.22186000       3.66850000      -0.00050000       0.94168700      -0.34485800       0.37363300      -0.00000000       0.00100000       0.00000000       0.00100000
O        6.44125000       2.01858000       6.38538000       3.67060000       0.00080000      -0.62574600       1.07105000      -0.86826000      -0.00000000      -0.00100000       0.00000000      -0.00100000
O        4.22982000       4.27353000       2.14622000       3.66510000      -0.00050000      -0.21001000      -0.68753300      -0.02565400      -0.00000000       0.00000000       0.00000000       0.00000000
O        6.30487000       4.21808000       8.42811000       3.67720000       0.00020000       0.59011000      -0.24134800      -0.25875500      -0.00000000      -0.00000000       0.00000000      -0.00000000
O        4.26521000       6.32874000       8.39129000       3.65200000      -0.02120000      -0.64601000      -0.15539800       0.25161900       0.00000000       0.02100000       0.00000000       0.02100000
O        6.24180000       6.24388000       2.00703000       3.65870000       0.00050000       0.93829900       0.56295800       0.84504200      -0.00000000      -0.00000000       0.00000000      -0.00100000
O        4.04181000       4.09793000       6.30540000       3.67550000      -0.00070000       1.79636500       1.62911000       0.53412600      -0.00000000       0.00100000       0.00000000       0.00100000
O        2.02101000       6.46171000       6.40731000       3.69170000      -0.00110000       0.99547800      -1.74882300      -0.94042400      -0.00000000       0.00100000       0.00000000       0.00100000
O        6.32707000       6.39831000       6.28291000       3.65510000      -0.00090000       0.04060800      -0.91811300       0.68907100      -0.00000000       0.00100000       0.00000000       0.00100000

